*Heading
** Job name: NLCB_C3D10 Model name: Model-1
** Generated by: Abaqus/CAE 2022
*NODE, NSET=NALL
      1,           0.,           0.,         0.25
      2,           0.,  0.100000001,         0.25
      3,           0.,  0.100000001,           0.
      4,           0.,           0.,           0.
      5,           1.,           0.,         0.25
      6,           1.,  0.100000001,         0.25
      7,           1.,  0.100000001,        0.125
      8,           1.,  0.100000001,           0.
      9,           1.,           0.,           0.
     10,           1.,           0.,        0.125
     11,           0., 0.0250000004,         0.25
     12,           0., 0.0500000007,         0.25
     13,           0.,  0.075000003,         0.25
     14,           0.,  0.100000001,  0.224999994
     15,           0.,  0.100000001,  0.200000003
     16,           0.,  0.100000001,  0.174999997
     17,           0.,  0.100000001,  0.150000006
     18,           0.,  0.100000001,        0.125
     19,           0.,  0.100000001,  0.100000001
     20,           0.,  0.100000001,  0.075000003
     21,           0.,  0.100000001, 0.0500000007
     22,           0.,  0.100000001, 0.0250000004
     23,           0.,  0.075000003,           0.
     24,           0., 0.0500000007,           0.
     25,           0., 0.0250000004,           0.
     26,           0.,           0., 0.0250000004
     27,           0.,           0., 0.0500000007
     28,           0.,           0.,  0.075000003
     29,           0.,           0.,  0.100000001
     30,           0.,           0.,        0.125
     31,           0.,           0.,  0.150000006
     32,           0.,           0.,  0.174999997
     33,           0.,           0.,  0.200000003
     34,           0.,           0.,  0.224999994
     35, 0.0250000004,           0.,         0.25
     36, 0.0500000007,           0.,         0.25
     37,  0.075000003,           0.,         0.25
     38,  0.100000001,           0.,         0.25
     39,        0.125,           0.,         0.25
     40,  0.150000006,           0.,         0.25
     41,  0.174999997,           0.,         0.25
     42,  0.200000003,           0.,         0.25
     43,  0.224999994,           0.,         0.25
     44,         0.25,           0.,         0.25
     45,  0.275000006,           0.,         0.25
     46,  0.300000012,           0.,         0.25
     47,  0.324999988,           0.,         0.25
     48,  0.349999994,           0.,         0.25
     49,        0.375,           0.,         0.25
     50,  0.400000006,           0.,         0.25
     51,  0.425000012,           0.,         0.25
     52,  0.449999988,           0.,         0.25
     53,  0.474999994,           0.,         0.25
     54,          0.5,           0.,         0.25
     55,  0.524999976,           0.,         0.25
     56,  0.550000012,           0.,         0.25
     57,  0.574999988,           0.,         0.25
     58,  0.600000024,           0.,         0.25
     59,        0.625,           0.,         0.25
     60,  0.649999976,           0.,         0.25
     61,  0.675000012,           0.,         0.25
     62,  0.699999988,           0.,         0.25
     63,  0.725000024,           0.,         0.25
     64,         0.75,           0.,         0.25
     65,  0.774999976,           0.,         0.25
     66,  0.800000012,           0.,         0.25
     67,  0.824999988,           0.,         0.25
     68,  0.850000024,           0.,         0.25
     69,        0.875,           0.,         0.25
     70,  0.899999976,           0.,         0.25
     71,  0.925000012,           0.,         0.25
     72,  0.949999988,           0.,         0.25
     73,  0.975000024,           0.,         0.25
     74,           1., 0.0250000004,         0.25
     75,           1., 0.0500000007,         0.25
     76,           1.,  0.075000003,         0.25
     77,  0.975000024,  0.100000001,         0.25
     78,  0.949999988,  0.100000001,         0.25
     79,  0.925000012,  0.100000001,         0.25
     80,  0.899999976,  0.100000001,         0.25
     81,        0.875,  0.100000001,         0.25
     82,  0.850000024,  0.100000001,         0.25
     83,  0.824999988,  0.100000001,         0.25
     84,  0.800000012,  0.100000001,         0.25
     85,  0.774999976,  0.100000001,         0.25
     86,         0.75,  0.100000001,         0.25
     87,  0.725000024,  0.100000001,         0.25
     88,  0.699999988,  0.100000001,         0.25
     89,  0.675000012,  0.100000001,         0.25
     90,  0.649999976,  0.100000001,         0.25
     91,        0.625,  0.100000001,         0.25
     92,  0.600000024,  0.100000001,         0.25
     93,  0.574999988,  0.100000001,         0.25
     94,  0.550000012,  0.100000001,         0.25
     95,  0.524999976,  0.100000001,         0.25
     96,          0.5,  0.100000001,         0.25
     97,  0.474999994,  0.100000001,         0.25
     98,  0.449999988,  0.100000001,         0.25
     99,  0.425000012,  0.100000001,         0.25
    100,  0.400000006,  0.100000001,         0.25
    101,        0.375,  0.100000001,         0.25
    102,  0.349999994,  0.100000001,         0.25
    103,  0.324999988,  0.100000001,         0.25
    104,  0.300000012,  0.100000001,         0.25
    105,  0.275000006,  0.100000001,         0.25
    106,         0.25,  0.100000001,         0.25
    107,  0.224999994,  0.100000001,         0.25
    108,  0.200000003,  0.100000001,         0.25
    109,  0.174999997,  0.100000001,         0.25
    110,  0.150000006,  0.100000001,         0.25
    111,        0.125,  0.100000001,         0.25
    112,  0.100000001,  0.100000001,         0.25
    113,  0.075000003,  0.100000001,         0.25
    114, 0.0500000007,  0.100000001,         0.25
    115, 0.0250000004,  0.100000001,         0.25
    116,           1.,  0.100000001,  0.224999994
    117,           1.,  0.100000001,  0.200000003
    118,           1.,  0.100000001,  0.174999997
    119,           1.,  0.100000001,  0.150000006
    120,           1.,  0.100000001,  0.100000001
    121,           1.,  0.100000001,  0.075000003
    122,           1.,  0.100000001, 0.0500000007
    123,           1.,  0.100000001, 0.0250000004
    124,  0.975000024,  0.100000001,           0.
    125,  0.949999988,  0.100000001,           0.
    126,  0.925000012,  0.100000001,           0.
    127,  0.899999976,  0.100000001,           0.
    128,        0.875,  0.100000001,           0.
    129,  0.850000024,  0.100000001,           0.
    130,  0.824999988,  0.100000001,           0.
    131,  0.800000012,  0.100000001,           0.
    132,  0.774999976,  0.100000001,           0.
    133,         0.75,  0.100000001,           0.
    134,  0.725000024,  0.100000001,           0.
    135,  0.699999988,  0.100000001,           0.
    136,  0.675000012,  0.100000001,           0.
    137,  0.649999976,  0.100000001,           0.
    138,        0.625,  0.100000001,           0.
    139,  0.600000024,  0.100000001,           0.
    140,  0.574999988,  0.100000001,           0.
    141,  0.550000012,  0.100000001,           0.
    142,  0.524999976,  0.100000001,           0.
    143,          0.5,  0.100000001,           0.
    144,  0.474999994,  0.100000001,           0.
    145,  0.449999988,  0.100000001,           0.
    146,  0.425000012,  0.100000001,           0.
    147,  0.400000006,  0.100000001,           0.
    148,        0.375,  0.100000001,           0.
    149,  0.349999994,  0.100000001,           0.
    150,  0.324999988,  0.100000001,           0.
    151,  0.300000012,  0.100000001,           0.
    152,  0.275000006,  0.100000001,           0.
    153,         0.25,  0.100000001,           0.
    154,  0.224999994,  0.100000001,           0.
    155,  0.200000003,  0.100000001,           0.
    156,  0.174999997,  0.100000001,           0.
    157,  0.150000006,  0.100000001,           0.
    158,        0.125,  0.100000001,           0.
    159,  0.100000001,  0.100000001,           0.
    160,  0.075000003,  0.100000001,           0.
    161, 0.0500000007,  0.100000001,           0.
    162, 0.0250000004,  0.100000001,           0.
    163,  0.975000024,           0.,           0.
    164,  0.949999988,           0.,           0.
    165,  0.925000012,           0.,           0.
    166,  0.899999976,           0.,           0.
    167,        0.875,           0.,           0.
    168,  0.850000024,           0.,           0.
    169,  0.824999988,           0.,           0.
    170,  0.800000012,           0.,           0.
    171,  0.774999976,           0.,           0.
    172,         0.75,           0.,           0.
    173,  0.725000024,           0.,           0.
    174,  0.699999988,           0.,           0.
    175,  0.675000012,           0.,           0.
    176,  0.649999976,           0.,           0.
    177,        0.625,           0.,           0.
    178,  0.600000024,           0.,           0.
    179,  0.574999988,           0.,           0.
    180,  0.550000012,           0.,           0.
    181,  0.524999976,           0.,           0.
    182,          0.5,           0.,           0.
    183,  0.474999994,           0.,           0.
    184,  0.449999988,           0.,           0.
    185,  0.425000012,           0.,           0.
    186,  0.400000006,           0.,           0.
    187,        0.375,           0.,           0.
    188,  0.349999994,           0.,           0.
    189,  0.324999988,           0.,           0.
    190,  0.300000012,           0.,           0.
    191,  0.275000006,           0.,           0.
    192,         0.25,           0.,           0.
    193,  0.224999994,           0.,           0.
    194,  0.200000003,           0.,           0.
    195,  0.174999997,           0.,           0.
    196,  0.150000006,           0.,           0.
    197,        0.125,           0.,           0.
    198,  0.100000001,           0.,           0.
    199,  0.075000003,           0.,           0.
    200, 0.0500000007,           0.,           0.
    201, 0.0250000004,           0.,           0.
    202,           1.,  0.075000003,           0.
    203,           1., 0.0500000007,           0.
    204,           1., 0.0250000004,           0.
    205,           1.,           0.,  0.150000006
    206,           1.,           0.,  0.174999997
    207,           1.,           0.,  0.200000003
    208,           1.,           0.,  0.224999994
    209,           1.,           0., 0.0250000004
    210,           1.,           0., 0.0500000007
    211,           1.,           0.,  0.075000003
    212,           1.,           0.,  0.100000001
    213,           1., 0.0250000004,        0.125
    214,           1., 0.0500000007,        0.125
    215,           1.,  0.075000003,        0.125
    216,           0., 0.0250000004,  0.224999994
    217,           0., 0.0500000007,  0.224999994
    218,           0.,  0.075000003,  0.224999994
    219,           0., 0.0250000004,  0.200000003
    220,           0., 0.0500000007,  0.200000003
    221,           0.,  0.075000003,  0.200000003
    222,           0., 0.0250000004,  0.174999997
    223,           0., 0.0500000007,  0.174999997
    224,           0.,  0.075000003,  0.174999997
    225,           0., 0.0250000004,  0.150000006
    226,           0., 0.0500000007,  0.150000006
    227,           0.,  0.075000003,  0.150000006
    228,           0., 0.0250000004,        0.125
    229,           0., 0.0500000007,        0.125
    230,           0.,  0.075000003,        0.125
    231,           0., 0.0250000004,  0.100000001
    232,           0., 0.0500000007,  0.100000001
    233,           0.,  0.075000003,  0.100000001
    234,           0., 0.0250000004,  0.075000003
    235,           0., 0.0500000007,  0.075000003
    236,           0.,  0.075000003,  0.075000003
    237,           0., 0.0250000004, 0.0500000007
    238,           0., 0.0500000007, 0.0500000007
    239,           0.,  0.075000003, 0.0500000007
    240,           0., 0.0250000004, 0.0250000004
    241,           0., 0.0500000007, 0.0250000004
    242,           0.,  0.075000003, 0.0250000004
    243, 0.0250000004,  0.075000003,         0.25
    244, 0.0250000004, 0.0500000007,         0.25
    245, 0.0250000004, 0.0250000004,         0.25
    246, 0.0500000007,  0.075000003,         0.25
    247, 0.0500000007, 0.0500000007,         0.25
    248, 0.0500000007, 0.0250000004,         0.25
    249,  0.075000003,  0.075000003,         0.25
    250,  0.075000003, 0.0500000007,         0.25
    251,  0.075000003, 0.0250000004,         0.25
    252,  0.100000001,  0.075000003,         0.25
    253,  0.100000001, 0.0500000007,         0.25
    254,  0.100000001, 0.0250000004,         0.25
    255,        0.125,  0.075000003,         0.25
    256,        0.125, 0.0500000007,         0.25
    257,        0.125, 0.0250000004,         0.25
    258,  0.150000006,  0.075000003,         0.25
    259,  0.150000006, 0.0500000007,         0.25
    260,  0.150000006, 0.0250000004,         0.25
    261,  0.174999997,  0.075000003,         0.25
    262,  0.174999997, 0.0500000007,         0.25
    263,  0.174999997, 0.0250000004,         0.25
    264,  0.200000003,  0.075000003,         0.25
    265,  0.200000003, 0.0500000007,         0.25
    266,  0.200000003, 0.0250000004,         0.25
    267,  0.224999994,  0.075000003,         0.25
    268,  0.224999994, 0.0500000007,         0.25
    269,  0.224999994, 0.0250000004,         0.25
    270,         0.25,  0.075000003,         0.25
    271,         0.25, 0.0500000007,         0.25
    272,         0.25, 0.0250000004,         0.25
    273,  0.275000006,  0.075000003,         0.25
    274,  0.275000006, 0.0500000007,         0.25
    275,  0.275000006, 0.0250000004,         0.25
    276,  0.300000012,  0.075000003,         0.25
    277,  0.300000012, 0.0500000007,         0.25
    278,  0.300000012, 0.0250000004,         0.25
    279,  0.324999988,  0.075000003,         0.25
    280,  0.324999988, 0.0500000007,         0.25
    281,  0.324999988, 0.0250000004,         0.25
    282,  0.349999994,  0.075000003,         0.25
    283,  0.349999994, 0.0500000007,         0.25
    284,  0.349999994, 0.0250000004,         0.25
    285,        0.375,  0.075000003,         0.25
    286,        0.375, 0.0500000007,         0.25
    287,        0.375, 0.0250000004,         0.25
    288,  0.400000006,  0.075000003,         0.25
    289,  0.400000006, 0.0500000007,         0.25
    290,  0.400000006, 0.0250000004,         0.25
    291,  0.425000012,  0.075000003,         0.25
    292,  0.425000012, 0.0500000007,         0.25
    293,  0.425000012, 0.0250000004,         0.25
    294,  0.449999988,  0.075000003,         0.25
    295,  0.449999988, 0.0500000007,         0.25
    296,  0.449999988, 0.0250000004,         0.25
    297,  0.474999994,  0.075000003,         0.25
    298,  0.474999994, 0.0500000007,         0.25
    299,  0.474999994, 0.0250000004,         0.25
    300,          0.5,  0.075000003,         0.25
    301,          0.5, 0.0500000007,         0.25
    302,          0.5, 0.0250000004,         0.25
    303,  0.524999976,  0.075000003,         0.25
    304,  0.524999976, 0.0500000007,         0.25
    305,  0.524999976, 0.0250000004,         0.25
    306,  0.550000012,  0.075000003,         0.25
    307,  0.550000012, 0.0500000007,         0.25
    308,  0.550000012, 0.0250000004,         0.25
    309,  0.574999988,  0.075000003,         0.25
    310,  0.574999988, 0.0500000007,         0.25
    311,  0.574999988, 0.0250000004,         0.25
    312,  0.600000024,  0.075000003,         0.25
    313,  0.600000024, 0.0500000007,         0.25
    314,  0.600000024, 0.0250000004,         0.25
    315,        0.625,  0.075000003,         0.25
    316,        0.625, 0.0500000007,         0.25
    317,        0.625, 0.0250000004,         0.25
    318,  0.649999976,  0.075000003,         0.25
    319,  0.649999976, 0.0500000007,         0.25
    320,  0.649999976, 0.0250000004,         0.25
    321,  0.675000012,  0.075000003,         0.25
    322,  0.675000012, 0.0500000007,         0.25
    323,  0.675000012, 0.0250000004,         0.25
    324,  0.699999988,  0.075000003,         0.25
    325,  0.699999988, 0.0500000007,         0.25
    326,  0.699999988, 0.0250000004,         0.25
    327,  0.725000024,  0.075000003,         0.25
    328,  0.725000024, 0.0500000007,         0.25
    329,  0.725000024, 0.0250000004,         0.25
    330,         0.75,  0.075000003,         0.25
    331,         0.75, 0.0500000007,         0.25
    332,         0.75, 0.0250000004,         0.25
    333,  0.774999976,  0.075000003,         0.25
    334,  0.774999976, 0.0500000007,         0.25
    335,  0.774999976, 0.0250000004,         0.25
    336,  0.800000012,  0.075000003,         0.25
    337,  0.800000012, 0.0500000007,         0.25
    338,  0.800000012, 0.0250000004,         0.25
    339,  0.824999988,  0.075000003,         0.25
    340,  0.824999988, 0.0500000007,         0.25
    341,  0.824999988, 0.0250000004,         0.25
    342,  0.850000024,  0.075000003,         0.25
    343,  0.850000024, 0.0500000007,         0.25
    344,  0.850000024, 0.0250000004,         0.25
    345,        0.875,  0.075000003,         0.25
    346,        0.875, 0.0500000007,         0.25
    347,        0.875, 0.0250000004,         0.25
    348,  0.899999976,  0.075000003,         0.25
    349,  0.899999976, 0.0500000007,         0.25
    350,  0.899999976, 0.0250000004,         0.25
    351,  0.925000012,  0.075000003,         0.25
    352,  0.925000012, 0.0500000007,         0.25
    353,  0.925000012, 0.0250000004,         0.25
    354,  0.949999988,  0.075000003,         0.25
    355,  0.949999988, 0.0500000007,         0.25
    356,  0.949999988, 0.0250000004,         0.25
    357,  0.975000024,  0.075000003,         0.25
    358,  0.975000024, 0.0500000007,         0.25
    359,  0.975000024, 0.0250000004,         0.25
    360, 0.0250000004,  0.100000001,  0.224999994
    361, 0.0500000007,  0.100000001,  0.224999994
    362,  0.075000003,  0.100000001,  0.224999994
    363,  0.100000001,  0.100000001,  0.224999994
    364,        0.125,  0.100000001,  0.224999994
    365,  0.150000006,  0.100000001,  0.224999994
    366,  0.174999997,  0.100000001,  0.224999994
    367,  0.200000003,  0.100000001,  0.224999994
    368,  0.224999994,  0.100000001,  0.224999994
    369,         0.25,  0.100000001,  0.224999994
    370,  0.275000006,  0.100000001,  0.224999994
    371,  0.300000012,  0.100000001,  0.224999994
    372,  0.324999988,  0.100000001,  0.224999994
    373,  0.349999994,  0.100000001,  0.224999994
    374,        0.375,  0.100000001,  0.224999994
    375,  0.400000006,  0.100000001,  0.224999994
    376,  0.425000012,  0.100000001,  0.224999994
    377,  0.449999988,  0.100000001,  0.224999994
    378,  0.474999994,  0.100000001,  0.224999994
    379,          0.5,  0.100000001,  0.224999994
    380,  0.524999976,  0.100000001,  0.224999994
    381,  0.550000012,  0.100000001,  0.224999994
    382,  0.574999988,  0.100000001,  0.224999994
    383,  0.600000024,  0.100000001,  0.224999994
    384,        0.625,  0.100000001,  0.224999994
    385,  0.649999976,  0.100000001,  0.224999994
    386,  0.675000012,  0.100000001,  0.224999994
    387,  0.699999988,  0.100000001,  0.224999994
    388,  0.725000024,  0.100000001,  0.224999994
    389,         0.75,  0.100000001,  0.224999994
    390,  0.774999976,  0.100000001,  0.224999994
    391,  0.800000012,  0.100000001,  0.224999994
    392,  0.824999988,  0.100000001,  0.224999994
    393,  0.850000024,  0.100000001,  0.224999994
    394,        0.875,  0.100000001,  0.224999994
    395,  0.899999976,  0.100000001,  0.224999994
    396,  0.925000012,  0.100000001,  0.224999994
    397,  0.949999988,  0.100000001,  0.224999994
    398,  0.975000024,  0.100000001,  0.224999994
    399, 0.0250000004,  0.100000001,  0.200000003
    400, 0.0500000007,  0.100000001,  0.200000003
    401,  0.075000003,  0.100000001,  0.200000003
    402,  0.100000001,  0.100000001,  0.200000003
    403,        0.125,  0.100000001,  0.200000003
    404,  0.150000006,  0.100000001,  0.200000003
    405,  0.174999997,  0.100000001,  0.200000003
    406,  0.200000003,  0.100000001,  0.200000003
    407,  0.224999994,  0.100000001,  0.200000003
    408,         0.25,  0.100000001,  0.200000003
    409,  0.275000006,  0.100000001,  0.200000003
    410,  0.300000012,  0.100000001,  0.200000003
    411,  0.324999988,  0.100000001,  0.200000003
    412,  0.349999994,  0.100000001,  0.200000003
    413,        0.375,  0.100000001,  0.200000003
    414,  0.400000006,  0.100000001,  0.200000003
    415,  0.425000012,  0.100000001,  0.200000003
    416,  0.449999988,  0.100000001,  0.200000003
    417,  0.474999994,  0.100000001,  0.200000003
    418,          0.5,  0.100000001,  0.200000003
    419,  0.524999976,  0.100000001,  0.200000003
    420,  0.550000012,  0.100000001,  0.200000003
    421,  0.574999988,  0.100000001,  0.200000003
    422,  0.600000024,  0.100000001,  0.200000003
    423,        0.625,  0.100000001,  0.200000003
    424,  0.649999976,  0.100000001,  0.200000003
    425,  0.675000012,  0.100000001,  0.200000003
    426,  0.699999988,  0.100000001,  0.200000003
    427,  0.725000024,  0.100000001,  0.200000003
    428,         0.75,  0.100000001,  0.200000003
    429,  0.774999976,  0.100000001,  0.200000003
    430,  0.800000012,  0.100000001,  0.200000003
    431,  0.824999988,  0.100000001,  0.200000003
    432,  0.850000024,  0.100000001,  0.200000003
    433,        0.875,  0.100000001,  0.200000003
    434,  0.899999976,  0.100000001,  0.200000003
    435,  0.925000012,  0.100000001,  0.200000003
    436,  0.949999988,  0.100000001,  0.200000003
    437,  0.975000024,  0.100000001,  0.200000003
    438, 0.0250000004,  0.100000001,  0.174999997
    439, 0.0500000007,  0.100000001,  0.174999997
    440,  0.075000003,  0.100000001,  0.174999997
    441,  0.100000001,  0.100000001,  0.174999997
    442,        0.125,  0.100000001,  0.174999997
    443,  0.150000006,  0.100000001,  0.174999997
    444,  0.174999997,  0.100000001,  0.174999997
    445,  0.200000003,  0.100000001,  0.174999997
    446,  0.224999994,  0.100000001,  0.174999997
    447,         0.25,  0.100000001,  0.174999997
    448,  0.275000006,  0.100000001,  0.174999997
    449,  0.300000012,  0.100000001,  0.174999997
    450,  0.324999988,  0.100000001,  0.174999997
    451,  0.349999994,  0.100000001,  0.174999997
    452,        0.375,  0.100000001,  0.174999997
    453,  0.400000006,  0.100000001,  0.174999997
    454,  0.425000012,  0.100000001,  0.174999997
    455,  0.449999988,  0.100000001,  0.174999997
    456,  0.474999994,  0.100000001,  0.174999997
    457,          0.5,  0.100000001,  0.174999997
    458,  0.524999976,  0.100000001,  0.174999997
    459,  0.550000012,  0.100000001,  0.174999997
    460,  0.574999988,  0.100000001,  0.174999997
    461,  0.600000024,  0.100000001,  0.174999997
    462,        0.625,  0.100000001,  0.174999997
    463,  0.649999976,  0.100000001,  0.174999997
    464,  0.675000012,  0.100000001,  0.174999997
    465,  0.699999988,  0.100000001,  0.174999997
    466,  0.725000024,  0.100000001,  0.174999997
    467,         0.75,  0.100000001,  0.174999997
    468,  0.774999976,  0.100000001,  0.174999997
    469,  0.800000012,  0.100000001,  0.174999997
    470,  0.824999988,  0.100000001,  0.174999997
    471,  0.850000024,  0.100000001,  0.174999997
    472,        0.875,  0.100000001,  0.174999997
    473,  0.899999976,  0.100000001,  0.174999997
    474,  0.925000012,  0.100000001,  0.174999997
    475,  0.949999988,  0.100000001,  0.174999997
    476,  0.975000024,  0.100000001,  0.174999997
    477, 0.0250000004,  0.100000001,  0.150000006
    478, 0.0500000007,  0.100000001,  0.150000006
    479,  0.075000003,  0.100000001,  0.150000006
    480,  0.100000001,  0.100000001,  0.150000006
    481,        0.125,  0.100000001,  0.150000006
    482,  0.150000006,  0.100000001,  0.150000006
    483,  0.174999997,  0.100000001,  0.150000006
    484,  0.200000003,  0.100000001,  0.150000006
    485,  0.224999994,  0.100000001,  0.150000006
    486,         0.25,  0.100000001,  0.150000006
    487,  0.275000006,  0.100000001,  0.150000006
    488,  0.300000012,  0.100000001,  0.150000006
    489,  0.324999988,  0.100000001,  0.150000006
    490,  0.349999994,  0.100000001,  0.150000006
    491,        0.375,  0.100000001,  0.150000006
    492,  0.400000006,  0.100000001,  0.150000006
    493,  0.425000012,  0.100000001,  0.150000006
    494,  0.449999988,  0.100000001,  0.150000006
    495,  0.474999994,  0.100000001,  0.150000006
    496,          0.5,  0.100000001,  0.150000006
    497,  0.524999976,  0.100000001,  0.150000006
    498,  0.550000012,  0.100000001,  0.150000006
    499,  0.574999988,  0.100000001,  0.150000006
    500,  0.600000024,  0.100000001,  0.150000006
    501,        0.625,  0.100000001,  0.150000006
    502,  0.649999976,  0.100000001,  0.150000006
    503,  0.675000012,  0.100000001,  0.150000006
    504,  0.699999988,  0.100000001,  0.150000006
    505,  0.725000024,  0.100000001,  0.150000006
    506,         0.75,  0.100000001,  0.150000006
    507,  0.774999976,  0.100000001,  0.150000006
    508,  0.800000012,  0.100000001,  0.150000006
    509,  0.824999988,  0.100000001,  0.150000006
    510,  0.850000024,  0.100000001,  0.150000006
    511,        0.875,  0.100000001,  0.150000006
    512,  0.899999976,  0.100000001,  0.150000006
    513,  0.925000012,  0.100000001,  0.150000006
    514,  0.949999988,  0.100000001,  0.150000006
    515,  0.975000024,  0.100000001,  0.150000006
    516, 0.0250000004,  0.100000001,        0.125
    517, 0.0500000007,  0.100000001,        0.125
    518,  0.075000003,  0.100000001,        0.125
    519,  0.100000001,  0.100000001,        0.125
    520,        0.125,  0.100000001,        0.125
    521,  0.150000006,  0.100000001,        0.125
    522,  0.174999997,  0.100000001,        0.125
    523,  0.200000003,  0.100000001,        0.125
    524,  0.224999994,  0.100000001,        0.125
    525,         0.25,  0.100000001,        0.125
    526,  0.275000006,  0.100000001,        0.125
    527,  0.300000012,  0.100000001,        0.125
    528,  0.324999988,  0.100000001,        0.125
    529,  0.349999994,  0.100000001,        0.125
    530,        0.375,  0.100000001,        0.125
    531,  0.400000006,  0.100000001,        0.125
    532,  0.425000012,  0.100000001,        0.125
    533,  0.449999988,  0.100000001,        0.125
    534,  0.474999994,  0.100000001,        0.125
    535,          0.5,  0.100000001,        0.125
    536,  0.524999976,  0.100000001,        0.125
    537,  0.550000012,  0.100000001,        0.125
    538,  0.574999988,  0.100000001,        0.125
    539,  0.600000024,  0.100000001,        0.125
    540,        0.625,  0.100000001,        0.125
    541,  0.649999976,  0.100000001,        0.125
    542,  0.675000012,  0.100000001,        0.125
    543,  0.699999988,  0.100000001,        0.125
    544,  0.725000024,  0.100000001,        0.125
    545,         0.75,  0.100000001,        0.125
    546,  0.774999976,  0.100000001,        0.125
    547,  0.800000012,  0.100000001,        0.125
    548,  0.824999988,  0.100000001,        0.125
    549,  0.850000024,  0.100000001,        0.125
    550,        0.875,  0.100000001,        0.125
    551,  0.899999976,  0.100000001,        0.125
    552,  0.925000012,  0.100000001,        0.125
    553,  0.949999988,  0.100000001,        0.125
    554,  0.975000024,  0.100000001,        0.125
    555, 0.0250000004,  0.100000001,  0.100000001
    556, 0.0500000007,  0.100000001,  0.100000001
    557,  0.075000003,  0.100000001,  0.100000001
    558,  0.100000001,  0.100000001,  0.100000001
    559,        0.125,  0.100000001,  0.100000001
    560,  0.150000006,  0.100000001,  0.100000001
    561,  0.174999997,  0.100000001,  0.100000001
    562,  0.200000003,  0.100000001,  0.100000001
    563,  0.224999994,  0.100000001,  0.100000001
    564,         0.25,  0.100000001,  0.100000001
    565,  0.275000006,  0.100000001,  0.100000001
    566,  0.300000012,  0.100000001,  0.100000001
    567,  0.324999988,  0.100000001,  0.100000001
    568,  0.349999994,  0.100000001,  0.100000001
    569,        0.375,  0.100000001,  0.100000001
    570,  0.400000006,  0.100000001,  0.100000001
    571,  0.425000012,  0.100000001,  0.100000001
    572,  0.449999988,  0.100000001,  0.100000001
    573,  0.474999994,  0.100000001,  0.100000001
    574,          0.5,  0.100000001,  0.100000001
    575,  0.524999976,  0.100000001,  0.100000001
    576,  0.550000012,  0.100000001,  0.100000001
    577,  0.574999988,  0.100000001,  0.100000001
    578,  0.600000024,  0.100000001,  0.100000001
    579,        0.625,  0.100000001,  0.100000001
    580,  0.649999976,  0.100000001,  0.100000001
    581,  0.675000012,  0.100000001,  0.100000001
    582,  0.699999988,  0.100000001,  0.100000001
    583,  0.725000024,  0.100000001,  0.100000001
    584,         0.75,  0.100000001,  0.100000001
    585,  0.774999976,  0.100000001,  0.100000001
    586,  0.800000012,  0.100000001,  0.100000001
    587,  0.824999988,  0.100000001,  0.100000001
    588,  0.850000024,  0.100000001,  0.100000001
    589,        0.875,  0.100000001,  0.100000001
    590,  0.899999976,  0.100000001,  0.100000001
    591,  0.925000012,  0.100000001,  0.100000001
    592,  0.949999988,  0.100000001,  0.100000001
    593,  0.975000024,  0.100000001,  0.100000001
    594, 0.0250000004,  0.100000001,  0.075000003
    595, 0.0500000007,  0.100000001,  0.075000003
    596,  0.075000003,  0.100000001,  0.075000003
    597,  0.100000001,  0.100000001,  0.075000003
    598,        0.125,  0.100000001,  0.075000003
    599,  0.150000006,  0.100000001,  0.075000003
    600,  0.174999997,  0.100000001,  0.075000003
    601,  0.200000003,  0.100000001,  0.075000003
    602,  0.224999994,  0.100000001,  0.075000003
    603,         0.25,  0.100000001,  0.075000003
    604,  0.275000006,  0.100000001,  0.075000003
    605,  0.300000012,  0.100000001,  0.075000003
    606,  0.324999988,  0.100000001,  0.075000003
    607,  0.349999994,  0.100000001,  0.075000003
    608,        0.375,  0.100000001,  0.075000003
    609,  0.400000006,  0.100000001,  0.075000003
    610,  0.425000012,  0.100000001,  0.075000003
    611,  0.449999988,  0.100000001,  0.075000003
    612,  0.474999994,  0.100000001,  0.075000003
    613,          0.5,  0.100000001,  0.075000003
    614,  0.524999976,  0.100000001,  0.075000003
    615,  0.550000012,  0.100000001,  0.075000003
    616,  0.574999988,  0.100000001,  0.075000003
    617,  0.600000024,  0.100000001,  0.075000003
    618,        0.625,  0.100000001,  0.075000003
    619,  0.649999976,  0.100000001,  0.075000003
    620,  0.675000012,  0.100000001,  0.075000003
    621,  0.699999988,  0.100000001,  0.075000003
    622,  0.725000024,  0.100000001,  0.075000003
    623,         0.75,  0.100000001,  0.075000003
    624,  0.774999976,  0.100000001,  0.075000003
    625,  0.800000012,  0.100000001,  0.075000003
    626,  0.824999988,  0.100000001,  0.075000003
    627,  0.850000024,  0.100000001,  0.075000003
    628,        0.875,  0.100000001,  0.075000003
    629,  0.899999976,  0.100000001,  0.075000003
    630,  0.925000012,  0.100000001,  0.075000003
    631,  0.949999988,  0.100000001,  0.075000003
    632,  0.975000024,  0.100000001,  0.075000003
    633, 0.0250000004,  0.100000001, 0.0500000007
    634, 0.0500000007,  0.100000001, 0.0500000007
    635,  0.075000003,  0.100000001, 0.0500000007
    636,  0.100000001,  0.100000001, 0.0500000007
    637,        0.125,  0.100000001, 0.0500000007
    638,  0.150000006,  0.100000001, 0.0500000007
    639,  0.174999997,  0.100000001, 0.0500000007
    640,  0.200000003,  0.100000001, 0.0500000007
    641,  0.224999994,  0.100000001, 0.0500000007
    642,         0.25,  0.100000001, 0.0500000007
    643,  0.275000006,  0.100000001, 0.0500000007
    644,  0.300000012,  0.100000001, 0.0500000007
    645,  0.324999988,  0.100000001, 0.0500000007
    646,  0.349999994,  0.100000001, 0.0500000007
    647,        0.375,  0.100000001, 0.0500000007
    648,  0.400000006,  0.100000001, 0.0500000007
    649,  0.425000012,  0.100000001, 0.0500000007
    650,  0.449999988,  0.100000001, 0.0500000007
    651,  0.474999994,  0.100000001, 0.0500000007
    652,          0.5,  0.100000001, 0.0500000007
    653,  0.524999976,  0.100000001, 0.0500000007
    654,  0.550000012,  0.100000001, 0.0500000007
    655,  0.574999988,  0.100000001, 0.0500000007
    656,  0.600000024,  0.100000001, 0.0500000007
    657,        0.625,  0.100000001, 0.0500000007
    658,  0.649999976,  0.100000001, 0.0500000007
    659,  0.675000012,  0.100000001, 0.0500000007
    660,  0.699999988,  0.100000001, 0.0500000007
    661,  0.725000024,  0.100000001, 0.0500000007
    662,         0.75,  0.100000001, 0.0500000007
    663,  0.774999976,  0.100000001, 0.0500000007
    664,  0.800000012,  0.100000001, 0.0500000007
    665,  0.824999988,  0.100000001, 0.0500000007
    666,  0.850000024,  0.100000001, 0.0500000007
    667,        0.875,  0.100000001, 0.0500000007
    668,  0.899999976,  0.100000001, 0.0500000007
    669,  0.925000012,  0.100000001, 0.0500000007
    670,  0.949999988,  0.100000001, 0.0500000007
    671,  0.975000024,  0.100000001, 0.0500000007
    672, 0.0250000004,  0.100000001, 0.0250000004
    673, 0.0500000007,  0.100000001, 0.0250000004
    674,  0.075000003,  0.100000001, 0.0250000004
    675,  0.100000001,  0.100000001, 0.0250000004
    676,        0.125,  0.100000001, 0.0250000004
    677,  0.150000006,  0.100000001, 0.0250000004
    678,  0.174999997,  0.100000001, 0.0250000004
    679,  0.200000003,  0.100000001, 0.0250000004
    680,  0.224999994,  0.100000001, 0.0250000004
    681,         0.25,  0.100000001, 0.0250000004
    682,  0.275000006,  0.100000001, 0.0250000004
    683,  0.300000012,  0.100000001, 0.0250000004
    684,  0.324999988,  0.100000001, 0.0250000004
    685,  0.349999994,  0.100000001, 0.0250000004
    686,        0.375,  0.100000001, 0.0250000004
    687,  0.400000006,  0.100000001, 0.0250000004
    688,  0.425000012,  0.100000001, 0.0250000004
    689,  0.449999988,  0.100000001, 0.0250000004
    690,  0.474999994,  0.100000001, 0.0250000004
    691,          0.5,  0.100000001, 0.0250000004
    692,  0.524999976,  0.100000001, 0.0250000004
    693,  0.550000012,  0.100000001, 0.0250000004
    694,  0.574999988,  0.100000001, 0.0250000004
    695,  0.600000024,  0.100000001, 0.0250000004
    696,        0.625,  0.100000001, 0.0250000004
    697,  0.649999976,  0.100000001, 0.0250000004
    698,  0.675000012,  0.100000001, 0.0250000004
    699,  0.699999988,  0.100000001, 0.0250000004
    700,  0.725000024,  0.100000001, 0.0250000004
    701,         0.75,  0.100000001, 0.0250000004
    702,  0.774999976,  0.100000001, 0.0250000004
    703,  0.800000012,  0.100000001, 0.0250000004
    704,  0.824999988,  0.100000001, 0.0250000004
    705,  0.850000024,  0.100000001, 0.0250000004
    706,        0.875,  0.100000001, 0.0250000004
    707,  0.899999976,  0.100000001, 0.0250000004
    708,  0.925000012,  0.100000001, 0.0250000004
    709,  0.949999988,  0.100000001, 0.0250000004
    710,  0.975000024,  0.100000001, 0.0250000004
    711,  0.975000024, 0.0250000004,           0.
    712,  0.949999988, 0.0250000004,           0.
    713,  0.925000012, 0.0250000004,           0.
    714,  0.899999976, 0.0250000004,           0.
    715,        0.875, 0.0250000004,           0.
    716,  0.850000024, 0.0250000004,           0.
    717,  0.824999988, 0.0250000004,           0.
    718,  0.800000012, 0.0250000004,           0.
    719,  0.774999976, 0.0250000004,           0.
    720,         0.75, 0.0250000004,           0.
    721,  0.725000024, 0.0250000004,           0.
    722,  0.699999988, 0.0250000004,           0.
    723,  0.675000012, 0.0250000004,           0.
    724,  0.649999976, 0.0250000004,           0.
    725,        0.625, 0.0250000004,           0.
    726,  0.600000024, 0.0250000004,           0.
    727,  0.574999988, 0.0250000004,           0.
    728,  0.550000012, 0.0250000004,           0.
    729,  0.524999976, 0.0250000004,           0.
    730,          0.5, 0.0250000004,           0.
    731,  0.474999994, 0.0250000004,           0.
    732,  0.449999988, 0.0250000004,           0.
    733,  0.425000012, 0.0250000004,           0.
    734,  0.400000006, 0.0250000004,           0.
    735,        0.375, 0.0250000004,           0.
    736,  0.349999994, 0.0250000004,           0.
    737,  0.324999988, 0.0250000004,           0.
    738,  0.300000012, 0.0250000004,           0.
    739,  0.275000006, 0.0250000004,           0.
    740,         0.25, 0.0250000004,           0.
    741,  0.224999994, 0.0250000004,           0.
    742,  0.200000003, 0.0250000004,           0.
    743,  0.174999997, 0.0250000004,           0.
    744,  0.150000006, 0.0250000004,           0.
    745,        0.125, 0.0250000004,           0.
    746,  0.100000001, 0.0250000004,           0.
    747,  0.075000003, 0.0250000004,           0.
    748, 0.0500000007, 0.0250000004,           0.
    749, 0.0250000004, 0.0250000004,           0.
    750,  0.975000024, 0.0500000007,           0.
    751,  0.949999988, 0.0500000007,           0.
    752,  0.925000012, 0.0500000007,           0.
    753,  0.899999976, 0.0500000007,           0.
    754,        0.875, 0.0500000007,           0.
    755,  0.850000024, 0.0500000007,           0.
    756,  0.824999988, 0.0500000007,           0.
    757,  0.800000012, 0.0500000007,           0.
    758,  0.774999976, 0.0500000007,           0.
    759,         0.75, 0.0500000007,           0.
    760,  0.725000024, 0.0500000007,           0.
    761,  0.699999988, 0.0500000007,           0.
    762,  0.675000012, 0.0500000007,           0.
    763,  0.649999976, 0.0500000007,           0.
    764,        0.625, 0.0500000007,           0.
    765,  0.600000024, 0.0500000007,           0.
    766,  0.574999988, 0.0500000007,           0.
    767,  0.550000012, 0.0500000007,           0.
    768,  0.524999976, 0.0500000007,           0.
    769,          0.5, 0.0500000007,           0.
    770,  0.474999994, 0.0500000007,           0.
    771,  0.449999988, 0.0500000007,           0.
    772,  0.425000012, 0.0500000007,           0.
    773,  0.400000006, 0.0500000007,           0.
    774,        0.375, 0.0500000007,           0.
    775,  0.349999994, 0.0500000007,           0.
    776,  0.324999988, 0.0500000007,           0.
    777,  0.300000012, 0.0500000007,           0.
    778,  0.275000006, 0.0500000007,           0.
    779,         0.25, 0.0500000007,           0.
    780,  0.224999994, 0.0500000007,           0.
    781,  0.200000003, 0.0500000007,           0.
    782,  0.174999997, 0.0500000007,           0.
    783,  0.150000006, 0.0500000007,           0.
    784,        0.125, 0.0500000007,           0.
    785,  0.100000001, 0.0500000007,           0.
    786,  0.075000003, 0.0500000007,           0.
    787, 0.0500000007, 0.0500000007,           0.
    788, 0.0250000004, 0.0500000007,           0.
    789,  0.975000024,  0.075000003,           0.
    790,  0.949999988,  0.075000003,           0.
    791,  0.925000012,  0.075000003,           0.
    792,  0.899999976,  0.075000003,           0.
    793,        0.875,  0.075000003,           0.
    794,  0.850000024,  0.075000003,           0.
    795,  0.824999988,  0.075000003,           0.
    796,  0.800000012,  0.075000003,           0.
    797,  0.774999976,  0.075000003,           0.
    798,         0.75,  0.075000003,           0.
    799,  0.725000024,  0.075000003,           0.
    800,  0.699999988,  0.075000003,           0.
    801,  0.675000012,  0.075000003,           0.
    802,  0.649999976,  0.075000003,           0.
    803,        0.625,  0.075000003,           0.
    804,  0.600000024,  0.075000003,           0.
    805,  0.574999988,  0.075000003,           0.
    806,  0.550000012,  0.075000003,           0.
    807,  0.524999976,  0.075000003,           0.
    808,          0.5,  0.075000003,           0.
    809,  0.474999994,  0.075000003,           0.
    810,  0.449999988,  0.075000003,           0.
    811,  0.425000012,  0.075000003,           0.
    812,  0.400000006,  0.075000003,           0.
    813,        0.375,  0.075000003,           0.
    814,  0.349999994,  0.075000003,           0.
    815,  0.324999988,  0.075000003,           0.
    816,  0.300000012,  0.075000003,           0.
    817,  0.275000006,  0.075000003,           0.
    818,         0.25,  0.075000003,           0.
    819,  0.224999994,  0.075000003,           0.
    820,  0.200000003,  0.075000003,           0.
    821,  0.174999997,  0.075000003,           0.
    822,  0.150000006,  0.075000003,           0.
    823,        0.125,  0.075000003,           0.
    824,  0.100000001,  0.075000003,           0.
    825,  0.075000003,  0.075000003,           0.
    826, 0.0500000007,  0.075000003,           0.
    827, 0.0250000004,  0.075000003,           0.
    828,  0.975000024,           0.,  0.224999994
    829,  0.949999988,           0.,  0.224999994
    830,  0.925000012,           0.,  0.224999994
    831,  0.899999976,           0.,  0.224999994
    832,        0.875,           0.,  0.224999994
    833,  0.850000024,           0.,  0.224999994
    834,  0.824999988,           0.,  0.224999994
    835,  0.800000012,           0.,  0.224999994
    836,  0.774999976,           0.,  0.224999994
    837,         0.75,           0.,  0.224999994
    838,  0.725000024,           0.,  0.224999994
    839,  0.699999988,           0.,  0.224999994
    840,  0.675000012,           0.,  0.224999994
    841,  0.649999976,           0.,  0.224999994
    842,        0.625,           0.,  0.224999994
    843,  0.600000024,           0.,  0.224999994
    844,  0.574999988,           0.,  0.224999994
    845,  0.550000012,           0.,  0.224999994
    846,  0.524999976,           0.,  0.224999994
    847,          0.5,           0.,  0.224999994
    848,  0.474999994,           0.,  0.224999994
    849,  0.449999988,           0.,  0.224999994
    850,  0.425000012,           0.,  0.224999994
    851,  0.400000006,           0.,  0.224999994
    852,        0.375,           0.,  0.224999994
    853,  0.349999994,           0.,  0.224999994
    854,  0.324999988,           0.,  0.224999994
    855,  0.300000012,           0.,  0.224999994
    856,  0.275000006,           0.,  0.224999994
    857,         0.25,           0.,  0.224999994
    858,  0.224999994,           0.,  0.224999994
    859,  0.200000003,           0.,  0.224999994
    860,  0.174999997,           0.,  0.224999994
    861,  0.150000006,           0.,  0.224999994
    862,        0.125,           0.,  0.224999994
    863,  0.100000001,           0.,  0.224999994
    864,  0.075000003,           0.,  0.224999994
    865, 0.0500000007,           0.,  0.224999994
    866, 0.0250000004,           0.,  0.224999994
    867,  0.975000024,           0.,  0.200000003
    868,  0.949999988,           0.,  0.200000003
    869,  0.925000012,           0.,  0.200000003
    870,  0.899999976,           0.,  0.200000003
    871,        0.875,           0.,  0.200000003
    872,  0.850000024,           0.,  0.200000003
    873,  0.824999988,           0.,  0.200000003
    874,  0.800000012,           0.,  0.200000003
    875,  0.774999976,           0.,  0.200000003
    876,         0.75,           0.,  0.200000003
    877,  0.725000024,           0.,  0.200000003
    878,  0.699999988,           0.,  0.200000003
    879,  0.675000012,           0.,  0.200000003
    880,  0.649999976,           0.,  0.200000003
    881,        0.625,           0.,  0.200000003
    882,  0.600000024,           0.,  0.200000003
    883,  0.574999988,           0.,  0.200000003
    884,  0.550000012,           0.,  0.200000003
    885,  0.524999976,           0.,  0.200000003
    886,          0.5,           0.,  0.200000003
    887,  0.474999994,           0.,  0.200000003
    888,  0.449999988,           0.,  0.200000003
    889,  0.425000012,           0.,  0.200000003
    890,  0.400000006,           0.,  0.200000003
    891,        0.375,           0.,  0.200000003
    892,  0.349999994,           0.,  0.200000003
    893,  0.324999988,           0.,  0.200000003
    894,  0.300000012,           0.,  0.200000003
    895,  0.275000006,           0.,  0.200000003
    896,         0.25,           0.,  0.200000003
    897,  0.224999994,           0.,  0.200000003
    898,  0.200000003,           0.,  0.200000003
    899,  0.174999997,           0.,  0.200000003
    900,  0.150000006,           0.,  0.200000003
    901,        0.125,           0.,  0.200000003
    902,  0.100000001,           0.,  0.200000003
    903,  0.075000003,           0.,  0.200000003
    904, 0.0500000007,           0.,  0.200000003
    905, 0.0250000004,           0.,  0.200000003
    906,  0.975000024,           0.,  0.174999997
    907,  0.949999988,           0.,  0.174999997
    908,  0.925000012,           0.,  0.174999997
    909,  0.899999976,           0.,  0.174999997
    910,        0.875,           0.,  0.174999997
    911,  0.850000024,           0.,  0.174999997
    912,  0.824999988,           0.,  0.174999997
    913,  0.800000012,           0.,  0.174999997
    914,  0.774999976,           0.,  0.174999997
    915,         0.75,           0.,  0.174999997
    916,  0.725000024,           0.,  0.174999997
    917,  0.699999988,           0.,  0.174999997
    918,  0.675000012,           0.,  0.174999997
    919,  0.649999976,           0.,  0.174999997
    920,        0.625,           0.,  0.174999997
    921,  0.600000024,           0.,  0.174999997
    922,  0.574999988,           0.,  0.174999997
    923,  0.550000012,           0.,  0.174999997
    924,  0.524999976,           0.,  0.174999997
    925,          0.5,           0.,  0.174999997
    926,  0.474999994,           0.,  0.174999997
    927,  0.449999988,           0.,  0.174999997
    928,  0.425000012,           0.,  0.174999997
    929,  0.400000006,           0.,  0.174999997
    930,        0.375,           0.,  0.174999997
    931,  0.349999994,           0.,  0.174999997
    932,  0.324999988,           0.,  0.174999997
    933,  0.300000012,           0.,  0.174999997
    934,  0.275000006,           0.,  0.174999997
    935,         0.25,           0.,  0.174999997
    936,  0.224999994,           0.,  0.174999997
    937,  0.200000003,           0.,  0.174999997
    938,  0.174999997,           0.,  0.174999997
    939,  0.150000006,           0.,  0.174999997
    940,        0.125,           0.,  0.174999997
    941,  0.100000001,           0.,  0.174999997
    942,  0.075000003,           0.,  0.174999997
    943, 0.0500000007,           0.,  0.174999997
    944, 0.0250000004,           0.,  0.174999997
    945,  0.975000024,           0.,  0.150000006
    946,  0.949999988,           0.,  0.150000006
    947,  0.925000012,           0.,  0.150000006
    948,  0.899999976,           0.,  0.150000006
    949,        0.875,           0.,  0.150000006
    950,  0.850000024,           0.,  0.150000006
    951,  0.824999988,           0.,  0.150000006
    952,  0.800000012,           0.,  0.150000006
    953,  0.774999976,           0.,  0.150000006
    954,         0.75,           0.,  0.150000006
    955,  0.725000024,           0.,  0.150000006
    956,  0.699999988,           0.,  0.150000006
    957,  0.675000012,           0.,  0.150000006
    958,  0.649999976,           0.,  0.150000006
    959,        0.625,           0.,  0.150000006
    960,  0.600000024,           0.,  0.150000006
    961,  0.574999988,           0.,  0.150000006
    962,  0.550000012,           0.,  0.150000006
    963,  0.524999976,           0.,  0.150000006
    964,          0.5,           0.,  0.150000006
    965,  0.474999994,           0.,  0.150000006
    966,  0.449999988,           0.,  0.150000006
    967,  0.425000012,           0.,  0.150000006
    968,  0.400000006,           0.,  0.150000006
    969,        0.375,           0.,  0.150000006
    970,  0.349999994,           0.,  0.150000006
    971,  0.324999988,           0.,  0.150000006
    972,  0.300000012,           0.,  0.150000006
    973,  0.275000006,           0.,  0.150000006
    974,         0.25,           0.,  0.150000006
    975,  0.224999994,           0.,  0.150000006
    976,  0.200000003,           0.,  0.150000006
    977,  0.174999997,           0.,  0.150000006
    978,  0.150000006,           0.,  0.150000006
    979,        0.125,           0.,  0.150000006
    980,  0.100000001,           0.,  0.150000006
    981,  0.075000003,           0.,  0.150000006
    982, 0.0500000007,           0.,  0.150000006
    983, 0.0250000004,           0.,  0.150000006
    984,  0.975000024,           0.,        0.125
    985,  0.949999988,           0.,        0.125
    986,  0.925000012,           0.,        0.125
    987,  0.899999976,           0.,        0.125
    988,        0.875,           0.,        0.125
    989,  0.850000024,           0.,        0.125
    990,  0.824999988,           0.,        0.125
    991,  0.800000012,           0.,        0.125
    992,  0.774999976,           0.,        0.125
    993,         0.75,           0.,        0.125
    994,  0.725000024,           0.,        0.125
    995,  0.699999988,           0.,        0.125
    996,  0.675000012,           0.,        0.125
    997,  0.649999976,           0.,        0.125
    998,        0.625,           0.,        0.125
    999,  0.600000024,           0.,        0.125
   1000,  0.574999988,           0.,        0.125
   1001,  0.550000012,           0.,        0.125
   1002,  0.524999976,           0.,        0.125
   1003,          0.5,           0.,        0.125
   1004,  0.474999994,           0.,        0.125
   1005,  0.449999988,           0.,        0.125
   1006,  0.425000012,           0.,        0.125
   1007,  0.400000006,           0.,        0.125
   1008,        0.375,           0.,        0.125
   1009,  0.349999994,           0.,        0.125
   1010,  0.324999988,           0.,        0.125
   1011,  0.300000012,           0.,        0.125
   1012,  0.275000006,           0.,        0.125
   1013,         0.25,           0.,        0.125
   1014,  0.224999994,           0.,        0.125
   1015,  0.200000003,           0.,        0.125
   1016,  0.174999997,           0.,        0.125
   1017,  0.150000006,           0.,        0.125
   1018,        0.125,           0.,        0.125
   1019,  0.100000001,           0.,        0.125
   1020,  0.075000003,           0.,        0.125
   1021, 0.0500000007,           0.,        0.125
   1022, 0.0250000004,           0.,        0.125
   1023,  0.975000024,           0.,  0.100000001
   1024,  0.949999988,           0.,  0.100000001
   1025,  0.925000012,           0.,  0.100000001
   1026,  0.899999976,           0.,  0.100000001
   1027,        0.875,           0.,  0.100000001
   1028,  0.850000024,           0.,  0.100000001
   1029,  0.824999988,           0.,  0.100000001
   1030,  0.800000012,           0.,  0.100000001
   1031,  0.774999976,           0.,  0.100000001
   1032,         0.75,           0.,  0.100000001
   1033,  0.725000024,           0.,  0.100000001
   1034,  0.699999988,           0.,  0.100000001
   1035,  0.675000012,           0.,  0.100000001
   1036,  0.649999976,           0.,  0.100000001
   1037,        0.625,           0.,  0.100000001
   1038,  0.600000024,           0.,  0.100000001
   1039,  0.574999988,           0.,  0.100000001
   1040,  0.550000012,           0.,  0.100000001
   1041,  0.524999976,           0.,  0.100000001
   1042,          0.5,           0.,  0.100000001
   1043,  0.474999994,           0.,  0.100000001
   1044,  0.449999988,           0.,  0.100000001
   1045,  0.425000012,           0.,  0.100000001
   1046,  0.400000006,           0.,  0.100000001
   1047,        0.375,           0.,  0.100000001
   1048,  0.349999994,           0.,  0.100000001
   1049,  0.324999988,           0.,  0.100000001
   1050,  0.300000012,           0.,  0.100000001
   1051,  0.275000006,           0.,  0.100000001
   1052,         0.25,           0.,  0.100000001
   1053,  0.224999994,           0.,  0.100000001
   1054,  0.200000003,           0.,  0.100000001
   1055,  0.174999997,           0.,  0.100000001
   1056,  0.150000006,           0.,  0.100000001
   1057,        0.125,           0.,  0.100000001
   1058,  0.100000001,           0.,  0.100000001
   1059,  0.075000003,           0.,  0.100000001
   1060, 0.0500000007,           0.,  0.100000001
   1061, 0.0250000004,           0.,  0.100000001
   1062,  0.975000024,           0.,  0.075000003
   1063,  0.949999988,           0.,  0.075000003
   1064,  0.925000012,           0.,  0.075000003
   1065,  0.899999976,           0.,  0.075000003
   1066,        0.875,           0.,  0.075000003
   1067,  0.850000024,           0.,  0.075000003
   1068,  0.824999988,           0.,  0.075000003
   1069,  0.800000012,           0.,  0.075000003
   1070,  0.774999976,           0.,  0.075000003
   1071,         0.75,           0.,  0.075000003
   1072,  0.725000024,           0.,  0.075000003
   1073,  0.699999988,           0.,  0.075000003
   1074,  0.675000012,           0.,  0.075000003
   1075,  0.649999976,           0.,  0.075000003
   1076,        0.625,           0.,  0.075000003
   1077,  0.600000024,           0.,  0.075000003
   1078,  0.574999988,           0.,  0.075000003
   1079,  0.550000012,           0.,  0.075000003
   1080,  0.524999976,           0.,  0.075000003
   1081,          0.5,           0.,  0.075000003
   1082,  0.474999994,           0.,  0.075000003
   1083,  0.449999988,           0.,  0.075000003
   1084,  0.425000012,           0.,  0.075000003
   1085,  0.400000006,           0.,  0.075000003
   1086,        0.375,           0.,  0.075000003
   1087,  0.349999994,           0.,  0.075000003
   1088,  0.324999988,           0.,  0.075000003
   1089,  0.300000012,           0.,  0.075000003
   1090,  0.275000006,           0.,  0.075000003
   1091,         0.25,           0.,  0.075000003
   1092,  0.224999994,           0.,  0.075000003
   1093,  0.200000003,           0.,  0.075000003
   1094,  0.174999997,           0.,  0.075000003
   1095,  0.150000006,           0.,  0.075000003
   1096,        0.125,           0.,  0.075000003
   1097,  0.100000001,           0.,  0.075000003
   1098,  0.075000003,           0.,  0.075000003
   1099, 0.0500000007,           0.,  0.075000003
   1100, 0.0250000004,           0.,  0.075000003
   1101,  0.975000024,           0., 0.0500000007
   1102,  0.949999988,           0., 0.0500000007
   1103,  0.925000012,           0., 0.0500000007
   1104,  0.899999976,           0., 0.0500000007
   1105,        0.875,           0., 0.0500000007
   1106,  0.850000024,           0., 0.0500000007
   1107,  0.824999988,           0., 0.0500000007
   1108,  0.800000012,           0., 0.0500000007
   1109,  0.774999976,           0., 0.0500000007
   1110,         0.75,           0., 0.0500000007
   1111,  0.725000024,           0., 0.0500000007
   1112,  0.699999988,           0., 0.0500000007
   1113,  0.675000012,           0., 0.0500000007
   1114,  0.649999976,           0., 0.0500000007
   1115,        0.625,           0., 0.0500000007
   1116,  0.600000024,           0., 0.0500000007
   1117,  0.574999988,           0., 0.0500000007
   1118,  0.550000012,           0., 0.0500000007
   1119,  0.524999976,           0., 0.0500000007
   1120,          0.5,           0., 0.0500000007
   1121,  0.474999994,           0., 0.0500000007
   1122,  0.449999988,           0., 0.0500000007
   1123,  0.425000012,           0., 0.0500000007
   1124,  0.400000006,           0., 0.0500000007
   1125,        0.375,           0., 0.0500000007
   1126,  0.349999994,           0., 0.0500000007
   1127,  0.324999988,           0., 0.0500000007
   1128,  0.300000012,           0., 0.0500000007
   1129,  0.275000006,           0., 0.0500000007
   1130,         0.25,           0., 0.0500000007
   1131,  0.224999994,           0., 0.0500000007
   1132,  0.200000003,           0., 0.0500000007
   1133,  0.174999997,           0., 0.0500000007
   1134,  0.150000006,           0., 0.0500000007
   1135,        0.125,           0., 0.0500000007
   1136,  0.100000001,           0., 0.0500000007
   1137,  0.075000003,           0., 0.0500000007
   1138, 0.0500000007,           0., 0.0500000007
   1139, 0.0250000004,           0., 0.0500000007
   1140,  0.975000024,           0., 0.0250000004
   1141,  0.949999988,           0., 0.0250000004
   1142,  0.925000012,           0., 0.0250000004
   1143,  0.899999976,           0., 0.0250000004
   1144,        0.875,           0., 0.0250000004
   1145,  0.850000024,           0., 0.0250000004
   1146,  0.824999988,           0., 0.0250000004
   1147,  0.800000012,           0., 0.0250000004
   1148,  0.774999976,           0., 0.0250000004
   1149,         0.75,           0., 0.0250000004
   1150,  0.725000024,           0., 0.0250000004
   1151,  0.699999988,           0., 0.0250000004
   1152,  0.675000012,           0., 0.0250000004
   1153,  0.649999976,           0., 0.0250000004
   1154,        0.625,           0., 0.0250000004
   1155,  0.600000024,           0., 0.0250000004
   1156,  0.574999988,           0., 0.0250000004
   1157,  0.550000012,           0., 0.0250000004
   1158,  0.524999976,           0., 0.0250000004
   1159,          0.5,           0., 0.0250000004
   1160,  0.474999994,           0., 0.0250000004
   1161,  0.449999988,           0., 0.0250000004
   1162,  0.425000012,           0., 0.0250000004
   1163,  0.400000006,           0., 0.0250000004
   1164,        0.375,           0., 0.0250000004
   1165,  0.349999994,           0., 0.0250000004
   1166,  0.324999988,           0., 0.0250000004
   1167,  0.300000012,           0., 0.0250000004
   1168,  0.275000006,           0., 0.0250000004
   1169,         0.25,           0., 0.0250000004
   1170,  0.224999994,           0., 0.0250000004
   1171,  0.200000003,           0., 0.0250000004
   1172,  0.174999997,           0., 0.0250000004
   1173,  0.150000006,           0., 0.0250000004
   1174,        0.125,           0., 0.0250000004
   1175,  0.100000001,           0., 0.0250000004
   1176,  0.075000003,           0., 0.0250000004
   1177, 0.0500000007,           0., 0.0250000004
   1178, 0.0250000004,           0., 0.0250000004
   1179,           1., 0.0250000004,  0.150000006
   1180,           1., 0.0500000007,  0.150000006
   1181,           1.,  0.075000003,  0.150000006
   1182,           1., 0.0250000004,  0.174999997
   1183,           1., 0.0500000007,  0.174999997
   1184,           1.,  0.075000003,  0.174999997
   1185,           1., 0.0250000004,  0.200000003
   1186,           1., 0.0500000007,  0.200000003
   1187,           1.,  0.075000003,  0.200000003
   1188,           1., 0.0250000004,  0.224999994
   1189,           1., 0.0500000007,  0.224999994
   1190,           1.,  0.075000003,  0.224999994
   1191,           1.,  0.075000003,  0.100000001
   1192,           1., 0.0500000007,  0.100000001
   1193,           1., 0.0250000004,  0.100000001
   1194,           1.,  0.075000003,  0.075000003
   1195,           1., 0.0500000007,  0.075000003
   1196,           1., 0.0250000004,  0.075000003
   1197,           1.,  0.075000003, 0.0500000007
   1198,           1., 0.0500000007, 0.0500000007
   1199,           1., 0.0250000004, 0.0500000007
   1200,           1.,  0.075000003, 0.0250000004
   1201,           1., 0.0500000007, 0.0250000004
   1202,           1., 0.0250000004, 0.0250000004
   1203,   0.68842113, 0.0506494679,  0.072317563
   1204,  0.669058383,  0.023295125, 0.0552997552
   1205,  0.662550807, 0.0509055667, 0.0738351569
   1206,  0.672693849, 0.0513027348, 0.0432441905
   1207,    0.6656183, 0.0193202253, 0.0832331255
   1208,  0.672544718, 0.0506100655, 0.0975909308
   1209,  0.683300912, 0.0819261298, 0.0583008043
   1210,  0.706214726, 0.0249026679, 0.0626031309
   1211,  0.714175284, 0.0497020297, 0.0705615431
   1212,  0.691789508, 0.0202093218, 0.0826043114
   1213,  0.706770897, 0.0767342076,  0.061458312
   1214,  0.707812488, 0.0802025422, 0.0835937411
   1215,  0.700234652, 0.0493895561, 0.0515931211
   1216,  0.700000048, 0.0500000007, 0.0937500671
   1217,  0.491678298, 0.0191922709, 0.0332585201
   1218,  0.468835831,  0.019919524, 0.0371672213
   1219,  0.500742257, 0.0202086885, 0.0533377416
   1220,  0.474751592, 0.0384848863, 0.0424888767
   1221,  0.593858302, 0.0516223684,   0.06175052
   1222,  0.575065434, 0.0557249039, 0.0456001461
   1223,  0.581770897, 0.0767342076, 0.0567707941
   1224,  0.606963158, 0.0786165372, 0.0355595537
   1225,  0.617167115,  0.020918332, 0.0603807047
   1226,  0.613057613, 0.0476175062, 0.0461910814
   1227,  0.620872617, 0.0491482131, 0.0705484301
   1228,  0.602331698,  0.058514826, 0.0185012054
   1229,  0.608072937, 0.0810697228, 0.0584635362
   1230,  0.605885804,  0.074313581, 0.0808268115
   1231,   0.58307296, 0.0810695961, 0.0830729306
   1232,  0.917933881,  0.046186883,  0.211779118
   1233,  0.914046466,  0.080584757,  0.206886172
   1234,  0.909068525, 0.0783224925,   0.18441388
   1235,  0.889600277, 0.0668021217,  0.202201888
   1236,  0.915945768, 0.0663276762,   0.23271063
   1237,  0.026735574,  0.056807451,  0.135616079
   1238, 0.0611789338, 0.0502293706,   0.11245776
   1239, 0.0229330976, 0.0385811701,  0.136123583
   1240, 0.0329959244, 0.0555444993,  0.106390044
   1241,  0.931950808, 0.0759612843,  0.182090297
   1242,  0.930496037, 0.0632159635,  0.206548035
   1243,  0.933333337, 0.0833332539,  0.216666728
   1244,  0.891666651, 0.0833332539,  0.216666728
   1245,  0.881778896, 0.0509899408,  0.100371353
   1246,  0.889138579,  0.051171992, 0.0767442957
   1247,  0.906151414, 0.0744256973, 0.0824224502
   1248,  0.901753426, 0.0501793921,  0.112947538
   1249,  0.868749917,  0.024999965,      0.09375
   1250,  0.862673104,   0.04914416, 0.0867231935
   1251,  0.862500072, 0.0499999374,  0.112500079
   1252,  0.887499869, 0.0500000007,  0.137499928
   1253,  0.881892443, 0.0746900961,  0.131108135
   1254,  0.882830918, 0.0780583471, 0.0816544667
   1255,  0.882112622, 0.0786474496,  0.108622409
   1256,  0.707491755, 0.0755524561,  0.183960587
   1257,  0.700122654,  0.053311497,  0.173940837
   1258,  0.676098168, 0.0659797862,  0.203532487
   1259,  0.682753384, 0.0790923759,  0.180923119
   1260,  0.857812464, 0.0802026689,  0.107812494
   1261,  0.494698435, 0.0331978165,  0.205301553
   1262,  0.513541579, 0.0458333604,  0.213541716
   1263,  0.495833308,  0.033333309,  0.232984141
   1264,   0.51666671, 0.0166666824,  0.216666728
   1265,  0.506249905, 0.0500000007,  0.193750024
   1266,  0.518427253, 0.0244133994,  0.193506524
   1267,  0.659497619,  0.080422096,  0.157921135
   1268,  0.632291615, 0.0784684345,  0.157291621
   1269,  0.459635377, 0.0189302806,  0.192708388
   1270,  0.476041645, 0.0458333604,  0.216666728
   1271,  0.481249928, 0.0499999374,  0.196875036
   1272,  0.095799461, 0.0668021217,  0.202201888
   1273, 0.0885417014, 0.0458333604,  0.213541716
   1274, 0.0829344913, 0.0659386143,  0.232429251
   1275,  0.067708306, 0.0541666411,  0.205208436
   1276, 0.0666666776, 0.0833332539,  0.216666728
   1277, 0.0833008066,  0.081828326,  0.183300793
   1278,  0.100000054, 0.0500000007,       0.1875
   1279,  0.108300783,  0.081828326,  0.183300793
   1280,  0.116666682, 0.0833332539,  0.216666728
   1281, 0.0416426323, 0.0622132272,  0.209222674
   1282, 0.0626607984,  0.050938949,  0.176519826
   1283,  0.057905063, 0.0802482739,  0.183252528
   1284,  0.841165304, 0.0497001298, 0.0999278799
   1285,  0.837499976, 0.0500000007,   0.12500006
   1286, 0.0166666675, 0.0666666925,  0.191666633
   1287, 0.0355571099, 0.0804253891,  0.178178668
   1288, 0.0399779528, 0.0823950022,  0.214449435
   1289, 0.0166666675, 0.0416666567,  0.216666728
   1290,  0.034844365, 0.0528623872,  0.191107944
   1291, 0.0166666675, 0.0666666925,  0.216666728
   1292, 0.0333253108, 0.0818550587,  0.233226508
   1293, 0.0501495413, 0.0416716598,  0.213608742
   1294, 0.0163652133, 0.0623020381, 0.0568392687
   1295, 0.0181387812, 0.0661173686, 0.0835229903
   1296, 0.0331954584, 0.0821117312, 0.0344863795
   1297,  0.035767287, 0.0535579063, 0.0584886819
   1298, 0.0189364087, 0.0577194802, 0.0329757519
   1299, 0.0239621848, 0.0340908393, 0.0370759442
   1300, 0.0161663126,   0.03473562, 0.0579118729
   1301,   0.31664443, 0.0607607514,  0.197388247
   1302,  0.333072871, 0.0810695961,   0.18307288
   1303,  0.306333482, 0.0756972656,  0.183168277
   1304, 0.0159627255, 0.0834219381,  0.104246229
   1305,  0.300903618, 0.0446820185,  0.213484466
   1306,   0.30863452, 0.0634029582,  0.232693776
   1307,  0.291874826, 0.0824447945,  0.215917498
   1308,  0.287869602, 0.0474125259,  0.191144422
   1309,  0.326217741, 0.0463738739,  0.213579223
   1310,  0.866666675, 0.0833332539,  0.216666728
   1311,  0.864600301, 0.0668021217,  0.202201888
   1312,  0.883333266, 0.0666666925,  0.233333305
   1313,   0.88854152, 0.0458333604,  0.213541716
   1314,  0.882831335, 0.0788186044,    0.1841719
   1315,  0.838346362, 0.0169949941, 0.0172787309
   1316,  0.833333313,  0.033333309, 0.0166667011
   1317,   0.85833329,  0.033333309, 0.0166667011
   1318,  0.887499869, 0.0500000007,       0.1875
   1319,  0.963097632, 0.0177275687, 0.0248117242
   1320,  0.958594799, 0.0368443392, 0.0201468188
   1321,  0.986109138, 0.0364583842, 0.0135416249
   1322,  0.844855726, 0.0517595708, 0.0756856874
   1323,   0.82676363, 0.0489106104, 0.0850479305
   1324,  0.833109558, 0.0747008622, 0.0816247612
   1325,      0.84375,  0.024999965,  0.118750036
   1326,  0.863346338, 0.0169949941, 0.0172787309
   1327,  0.844275713, 0.0250244793, 0.0922024474
   1328,  0.355710059, 0.0226687156, 0.0513602681
   1329,  0.332761407, 0.0203505792, 0.0453093313
   1330,  0.344628602, 0.0287325736, 0.0329761952
   1331,  0.283593744, 0.0828954205,  0.232982755
   1332,  0.357291698, 0.0541666411, 0.0364583395
   1333,  0.367447823, 0.0163221546, 0.0334831364
   1334,  0.333333343, 0.0166666824, 0.0166667011
   1335,  0.358333319,  0.033333309, 0.0166667011
   1336,  0.359863341, 0.0174646899, 0.0165809952
   1337,  0.317198098, 0.0230098236, 0.0331028812
   1338,  0.330208331, 0.0458333604, 0.0239583533
   1339,  0.122090384, 0.0679698065,  0.201811686
   1340,  0.125965133, 0.0452557877,   0.21270901
   1341,   0.13333337, 0.0666666925,  0.233333305
   1342,  0.108333342, 0.0666666925,  0.233333305
   1343,  0.141667917,  0.081217438,  0.214776546
   1344,  0.150592774, 0.0487261526,  0.213528544
   1345,   0.13324818, 0.0811736062,  0.183283687
   1346,  0.803845763, 0.0531898774,  0.100329861
   1347,  0.818221211, 0.0245041717, 0.0940242782
   1348,  0.799045563, 0.0491452999, 0.0746922046
   1349,    0.9398067, 0.0812408775,  0.149236038
   1350,  0.818750024,  0.024999965,  0.118750036
   1351,  0.812500119, 0.0499999374,        0.125
   1352,  0.807489872, 0.0751806274, 0.0826052576
   1353,  0.830192089, 0.0744028911,  0.105436526
   1354,  0.806146562, 0.0771346688,  0.108451888
   1355,  0.652233064, 0.0344391689,  0.214057982
   1356,  0.637500048, 0.0500000007,  0.233333305
   1357,  0.658582449, 0.0657347739,  0.232903957
   1358,  0.643664956,  0.054156635,  0.203604445
   1359,  0.668750048,  0.024999965,  0.193750024
   1360,  0.676041663, 0.0458333604,  0.213541716
   1361,  0.666666627, 0.0166666824,  0.216666728
   1362,  0.617708325, 0.0458333604,  0.213541716
   1363,  0.620204985, 0.0247211885,  0.193890005
   1364,   0.64165163, 0.0253936481,  0.193153694
   1365,  0.641371906, 0.0172331054,  0.215679452
   1366,  0.657480001, 0.0740674213,  0.181208029
   1367,  0.633115232, 0.0785630718,  0.181962207
   1368,  0.647518396, 0.0518896803,  0.156265453
   1369,  0.259883821, 0.0844118744,  0.234172478
   1370,  0.637785494,  0.049495846,  0.135879844
   1371,  0.619412065, 0.0259054676,  0.144501463
   1372,  0.612500072, 0.0499999374,  0.156249866
   1373,  0.632305861, 0.0789165348,  0.133847505
   1374,  0.658688486, 0.0780667067,  0.132530585
   1375,  0.959133208, 0.0812284648,  0.077568084
   1376,   0.98333329, 0.0833332539, 0.0833333358
   1377,  0.982020378, 0.0844837055, 0.0592403859
   1378,  0.663378716, 0.0508298688,  0.136465773
   1379,  0.908072889, 0.0810695961,  0.158072904
   1380,  0.308614314, 0.0828384086,  0.233275905
   1381,  0.438193113, 0.0165613424,  0.227732554
   1382,  0.463020802, 0.0130208563,   0.23402299
   1383,  0.927802861, 0.0634963214,  0.113571353
   1384,  0.945305467, 0.0495602675,  0.119222015
   1385,  0.958296418, 0.0815137625,  0.133211538
   1386,   0.96451062, 0.0719845444,  0.172145545
   1387,  0.964902461, 0.0591862723,  0.151354894
   1388,  0.936480641, 0.0576415658,   0.16315715
   1389,  0.945779383, 0.0480799824,  0.144991234
   1390,  0.922459424, 0.0572761968,  0.140536383
   1391,  0.318976432, 0.0248937998,  0.194848284
   1392,  0.294809312, 0.0258800667,  0.193595454
   1393,  0.312322259, 0.0500332564,  0.175261304
   1394,  0.292847097, 0.0263766833,  0.168290555
   1395,  0.275624633, 0.0508627445,  0.175664932
   1396,   0.26925227, 0.0237397999,  0.167994991
   1397,  0.266065389, 0.0605352484,  0.197264597
   1398,  0.267433882, 0.0272011049,   0.19287321
   1399,   0.41121769, 0.0486816205,  0.186272636
   1400,  0.393749952,  0.024999965,  0.193750024
   1401,  0.387499988, 0.0500000007,       0.1875
   1402,  0.393749952,  0.024999965,  0.168749914
   1403,   0.98333329, 0.0166666824, 0.0416666716
   1404,   0.98333329, 0.0166666824, 0.0166666377
   1405,  0.389219522, 0.0447909087,  0.212815166
   1406,  0.395940959, 0.0660405979,  0.204000846
   1407,  0.408072919, 0.0810695961,   0.18307288
   1408,  0.435039848, 0.0473574176,  0.185039848
   1409,  0.412499964, 0.0500000007,   0.16249989
   1410,  0.427297175, 0.0718674883,  0.177297056
   1411,  0.863541543, 0.0458333604,  0.213541716
   1412,  0.863253236, 0.0503094979,  0.187210009
   1413,  0.741598904, 0.0666304603,  0.202176675
   1414,   0.71007818, 0.0480667427,  0.194079787
   1415,  0.731842816, 0.0738509148,  0.180832282
   1416,  0.735211968, 0.0474720672,  0.185654908
   1417,   0.73333329, 0.0666666925,  0.233333305
   1418,  0.752986014, 0.0464085862,  0.212249383
   1419,  0.759081364, 0.0665417761,  0.232587621
   1420,  0.755774796, 0.0498330891,  0.175981402
   1421,  0.775283992, 0.0504499972,  0.187785417
   1422,  0.758229733, 0.0813301951,  0.183359966
   1423,  0.764858723, 0.0826482549,  0.217119396
   1424,  0.784572482,  0.073813796,  0.207875729
   1425,  0.217712507, 0.0184062347, 0.0348264724
   1426,  0.237681448, 0.0442812406,  0.044079572
   1427,  0.232555091, 0.0347045176, 0.0181661788
   1428,  0.211636171, 0.0424450263,  0.052964706
   1429,  0.208809704, 0.0769592002, 0.0569841377
   1430,  0.224999979, 0.0500000007, 0.0749999881
   1431,  0.230041087, 0.0743803456,  0.054832533
   1432,  0.207418919, 0.0540540144, 0.0367317945
   1433,  0.208333358,  0.033333309, 0.0166667011
   1434,  0.193749979,  0.024999965, 0.0437499955
   1435,    0.1917537, 0.0239781626,  0.066809617
   1436,  0.199329644, 0.0485717207, 0.0760731027
   1437,  0.175134704, 0.0488880612, 0.0619412474
   1438,  0.184715301, 0.0774028674, 0.0578812771
   1439,  0.218749955,  0.024999965, 0.0687499642
   1440,  0.368749976, 0.0500000007,  0.149999976
   1441,  0.368749976,  0.024999965,  0.168749914
   1442,  0.349999964, 0.0500000007,   0.16249989
   1443,  0.368749976,  0.024999965,  0.143749952
   1444,  0.356249988, 0.0749999732,  0.181249976
   1445,  0.356249988, 0.0749999732,      0.15625
   1446,   0.34374994,  0.024999965,  0.143749952
   1447,  0.362499952, 0.0500000007,   0.12500006
   1448,  0.383072883, 0.0810697228,  0.133072942
   1449,  0.387499988, 0.0500000007,  0.137500048
   1450,  0.383300811, 0.0818284526,  0.158300817
   1451,  0.356249988, 0.0749999732,  0.131250024
   1452,  0.444202572, 0.0620898344,   0.21309945
   1453,  0.417461634, 0.0406285748,  0.209347203
   1454,  0.446806878, 0.0402729623,  0.209435895
   1455,  0.462499976, 0.0499999374,  0.181249976
   1456,  0.456249952, 0.0749999732,  0.193750024
   1457,  0.417955041, 0.0666467994,  0.202128276
   1458,   0.43882364, 0.0861506686,  0.188823625
   1459,  0.441666633, 0.0833332539,  0.216666728
   1460,  0.466666609, 0.0833332539,  0.216666728
   1461,  0.458333343, 0.0666666925,  0.233333305
   1462,  0.294882476, 0.0617791973, 0.0650387704
   1463,  0.282474905, 0.0778998584, 0.0454299413
   1464,  0.306250066, 0.0749999732, 0.0437499955
   1465,  0.310627818,  0.080918707,  0.082890749
   1466,  0.316228122, 0.0505412109, 0.0747872218
   1467,  0.330590814, 0.0795479417, 0.0569484122
   1468,  0.287047625, 0.0809166804, 0.0740198717
   1469,  0.285338819, 0.0201234277, 0.0650714561
   1470,  0.269337922, 0.0497288257, 0.0629453138
   1471,  0.288946629, 0.0484139323, 0.0436488949
   1472,  0.300327122, 0.0511169471, 0.0996279418
   1473,  0.736930728, 0.0481330641,  0.164012298
   1474,  0.762499928, 0.0500000007,  0.149999976
   1475,  0.743749976,  0.024999965,  0.168749914
   1476,  0.779576182, 0.0752834976,  0.157650411
   1477,  0.784904301, 0.0782634541,  0.183043107
   1478,  0.788967907, 0.0498413891,  0.162820041
   1479,  0.768749952, 0.0250000283,  0.168749914
   1480,  0.756770849, 0.0767342076,   0.15677081
   1481,      0.59375, 0.0499999374,  0.168749914
   1482,  0.606249928,  0.024999965,  0.168749914
   1483,      0.59375,  0.024999965,  0.143749952
   1484,      0.59375,  0.024999965,  0.193750024
   1485,  0.568750024,  0.024999965,  0.168749914
   1486,  0.581250072, 0.0749999732,  0.168749914
   1487,  0.575000048, 0.0499999374,  0.156249866
   1488,  0.562500119, 0.0499999374,  0.181249976
   1489,  0.612499952, 0.0500000007,  0.181249976
   1490,  0.606250048, 0.0749999732,  0.168749914
   1491,  0.587500095, 0.0500000007,  0.196875036
   1492,  0.237049848, 0.0494336411,  0.120989755
   1493,  0.225000054, 0.0500000007,  0.100000024
   1494,  0.211645231, 0.0488237664,  0.125368401
   1495,  0.231250003, 0.0749999732,  0.106250055
   1496,   0.25023827, 0.0496192388,  0.137362599
   1497,  0.231742829, 0.0769603401,  0.133177072
   1498,  0.212909326, 0.0487613082,  0.149530977
   1499,  0.244039863, 0.0254391283,  0.119646482
   1500,  0.249956816, 0.0492432937,  0.100662164
   1501,  0.268405318, 0.0254447665,  0.118281484
   1502,  0.243749991,  0.024999965,      0.09375
   1503,  0.242402419, 0.0273172148,  0.142185092
   1504,  0.283333331, 0.0666666925,  0.233333305
   1505,  0.139071524,  0.049116604,  0.131930843
   1506,  0.124018513, 0.0508295521,  0.112879254
   1507,   0.14305301, 0.0257028304,  0.118474871
   1508,  0.118750006,  0.024999965,  0.118750036
   1509,  0.152034163, 0.0500356629,  0.149608761
   1510,  0.141981542,  0.025033284,  0.144952849
   1511,  0.168902606, 0.0256624166,   0.14358981
   1512,  0.137837321, 0.0497988202,  0.166099742
   1513,  0.113022566, 0.0500641055,  0.162362307
   1514,  0.118750006,  0.024999965,  0.143749952
   1515,  0.112673923, 0.0506238118,  0.137110099
   1516,  0.130284443, 0.0740095302,  0.155917183
   1517,  0.134055436, 0.0783009529,  0.131976068
   1518,  0.112082288, 0.0489881448, 0.0911281332
   1519,  0.087500073, 0.0499999374, 0.0875000432
   1520,  0.106250018, 0.0749999732, 0.0812500194
   1521,  0.112500042, 0.0499999374, 0.0562500432
   1522,  0.106250018, 0.0749999732,  0.106250055
   1523,  0.099999994, 0.0499999374,  0.112500079
   1524,  0.118316986, 0.0263174567, 0.0943543017
   1525,  0.142667934, 0.0504486673,  0.100844212
   1526,  0.268750042,  0.024999965,      0.09375
   1527, 0.0937500298,  0.024999965,      0.09375
   1528,  0.932753623, 0.0800000951, 0.0575496703
   1529,  0.934222162, 0.0419587344, 0.0408804491
   1530,  0.917333782, 0.0658623502,  0.018534271
   1531,  0.948287547, 0.0613756962,  0.047195401
   1532,  0.931060672, 0.0203085188, 0.0524858274
   1533,  0.941666722, 0.0166666824, 0.0333333276
   1534,  0.918516815, 0.0182675123,  0.033765588
   1535,   0.94219172, 0.0641741082, 0.0169160217
   1536,  0.275000006, 0.0500000007,  0.100000024
   1537,  0.257291675, 0.0784683079, 0.0822917074
   1538,  0.257291675, 0.0784684345,  0.107291684
   1539,  0.937500119, 0.0499999374, 0.0625000671
   1540,  0.963541687,  0.033333309, 0.0510416478
   1541,  0.225666672, 0.0485050194,  0.167505085
   1542,  0.250301927, 0.0493732765,  0.163051501
   1543,  0.243749991,  0.024999965,  0.168749914
   1544,  0.933171272, 0.0333570652,  0.018101126
   1545,  0.127902836,  0.050421048, 0.0761868656
   1546,    0.1568124, 0.0782101229,  0.083782129
   1547,  0.162719026, 0.0501776822,  0.087364547
   1548,  0.143750042,  0.024999965,      0.09375
   1549,  0.143288076, 0.0245948806, 0.0685242712
   1550,  0.163532749, 0.0502116345,  0.113210477
   1551,  0.268749982,  0.024999965,  0.143749952
   1552,  0.283072919, 0.0810695961,  0.108072899
   1553,  0.306250066, 0.0749999732,  0.106250055
   1554,   0.78787297,  0.051423911,  0.111958489
   1555,  0.766304195, 0.0490326099,  0.123419441
   1556,  0.768761456, 0.0259837601,  0.118974783
   1557,  0.787973464,  0.049842529,   0.13766335
   1558,  0.793750048,  0.024999965,  0.118750036
   1559,  0.768754721, 0.0254534446, 0.0936815292
   1560,  0.756250024, 0.0749999732,  0.131250024
   1561,  0.737194896, 0.0498662814,  0.137275174
   1562,  0.748196423, 0.0503786094,  0.112283759
   1563,  0.743225694,  0.026727356,  0.118038557
   1564,  0.769124389, 0.0246285163,  0.143334165
   1565,  0.243749991,  0.024999965,  0.193750024
   1566,  0.236661166, 0.0502774492,  0.188119501
   1567,  0.243661687, 0.0451613441,  0.213522971
   1568,  0.258326322, 0.0818706453,  0.183352739
   1569,  0.283300847,  0.081828326,  0.183300793
   1570,  0.266143858,  0.082653448,  0.217311829
   1571,  0.244922876, 0.0787343532,  0.198230967
   1572,  0.259187102, 0.0585981868,  0.230957896
   1573,    0.6930269, 0.0250613447,  0.169616714
   1574,  0.673610687, 0.0488691851,  0.187843069
   1575,  0.693750024,  0.024999965,  0.193750024
   1576,  0.691798151, 0.0818393528,  0.214580059
   1577,  0.700212359, 0.0479312502,  0.214266881
   1578,  0.716612637, 0.0816351324,  0.216485575
   1579,  0.726041615, 0.0458333604,  0.213541716
   1580,  0.718526125, 0.0254661124,  0.168813512
   1581,  0.741666675, 0.0833332539,  0.216666728
   1582,      0.71875,  0.024999965,  0.193750024
   1583,  0.068749994,  0.024999965,  0.168749914
   1584, 0.0420968719, 0.0471840426,  0.166453704
   1585, 0.0609696433, 0.0505544506,    0.1382332
   1586, 0.0417434126, 0.0207092334,  0.156095058
   1587, 0.0564719662, 0.0779728368,  0.157354459
   1588, 0.0166666675, 0.0666666925,  0.166666657
   1589, 0.0316590481,  0.078160584,  0.149335742
   1590, 0.0200357437, 0.0400375128,  0.162685364
   1591, 0.0166666675, 0.0416667201,       0.1875
   1592,  0.707291663, 0.0784684345,  0.157291621
   1593,  0.733072937, 0.0810697228,  0.158072904
   1594,  0.302201927, 0.0584010594, 0.0300982241
   1595,  0.290702701, 0.0831119344, 0.0159676988
   1596,   0.30786863, 0.0344512686, 0.0183095895
   1597,   0.28125003, 0.0375000127, 0.0187500212
   1598,  0.322916687, 0.0817649886, 0.0385416597
   1599,  0.316666663, 0.0666666925, 0.0166667011
   1600,  0.324999988, 0.0500000007, 0.0437499955
   1601,  0.774772167, 0.0180468224,  0.213899747
   1602,  0.741666675, 0.0166666824,  0.216666728
   1603,  0.743749976,  0.024999965,  0.193750024
   1604,  0.784211457, 0.0829975307,  0.233861849
   1605,   0.79231298, 0.0661001429,  0.232945383
   1606,  0.856250048, 0.0749999732, 0.0812500194
   1607,   0.82486093, 0.0501824953, 0.0613135099
   1608,  0.833303273,  0.081722796, 0.0583672523
   1609,  0.853820264,  0.072776854, 0.0552135445
   1610,  0.842545927, 0.0245945007, 0.0671648458
   1611,  0.819463611, 0.0249281954, 0.0686070621
   1612,  0.863402188, 0.0508308187, 0.0632637441
   1613,  0.768749952,  0.024999965,  0.193750024
   1614,   0.12500003, 0.0500000007,       0.1875
   1615,  0.118750006,  0.024999965,  0.168749914
   1616,   0.14305073, 0.0251915175,  0.166687563
   1617,  0.149381697, 0.0501143374,  0.188226044
   1618,  0.167132586, 0.0255820323,  0.168486789
   1619,  0.175179675, 0.0500088707,   0.17486845
   1620,   0.15799439, 0.0805680379,  0.158764631
   1621,  0.159595862, 0.0742817819,  0.183097079
   1622,  0.182450488, 0.0761767775,  0.182368115
   1623,  0.556868196, 0.0394647531,  0.205115199
   1624,  0.544791698, 0.0541666411,  0.216666728
   1625,  0.558333337,  0.033333309,  0.233333305
   1626,  0.569791675, 0.0541666411,  0.216666609
   1627,  0.555897295, 0.0754013211,  0.199657992
   1628,  0.566666782, 0.0166666824,  0.216666728
   1629,  0.568750024,  0.024999965,  0.193750024
   1630,  0.537500024, 0.0500000007,  0.181249976
   1631,  0.532291651, 0.0338541865,  0.232024103
   1632,  0.644498289, 0.0717483982,  0.110946946
   1633,  0.660596251, 0.0812847093, 0.0958510563
   1634,  0.682812512,  0.080983825, 0.0828125253
   1635,  0.683181465, 0.0812392309,  0.108096786
   1636,  0.118750006,  0.024999965,  0.193750024
   1637,  0.640835464, 0.0823012516,  0.216571212
   1638,  0.364600271, 0.0668021217,  0.202201888
   1639,  0.339600235, 0.0668021217,  0.202201888
   1640,  0.358333319, 0.0666666925,  0.233333305
   1641,  0.341666639, 0.0833332539,  0.216666728
   1642,  0.392943263,  0.084362343,  0.217219353
   1643,  0.383268356,  0.066310823,  0.232416466
   1644,  0.381555736, 0.0763498321,    0.1824321
   1645,  0.366666675, 0.0833332539,  0.216666728
   1646,  0.337499917, 0.0500000007,       0.1875
   1647,  0.317001373,  0.081987448,  0.215591028
   1648,  0.363541663, 0.0458333604,  0.213541716
   1649,  0.362499952, 0.0500000007,       0.1875
   1650,  0.232892513, 0.0776649788,  0.157028243
   1651,  0.232435554,  0.078685075,  0.181765467
   1652,     0.201444, 0.0497203991,  0.175131693
   1653,  0.219202295, 0.0247879531,  0.193025231
   1654,  0.217012435, 0.0254298169,  0.168779179
   1655,  0.615624964, 0.0187499393,  0.215624973
   1656,  0.591666758, 0.0166666824,  0.216666728
   1657,  0.612532496,  0.014162695,  0.234740302
   1658,  0.495833367, 0.0215315651,  0.182291597
   1659,  0.488488168, 0.0489688255,  0.160667226
   1660,  0.494944125, 0.0816133395,  0.191727072
   1661,  0.481916308, 0.0720614493,  0.167140856
   1662,  0.536718726, 0.0793353617,  0.196875036
   1663,   0.51562494, 0.0499999374,  0.174999952
   1664,   0.51666671, 0.0833332539,  0.216666728
   1665,  0.491666645, 0.0833332539,  0.216666728
   1666,  0.506250024, 0.0749999732,  0.168749914
   1667,  0.387499928, 0.0500000007,   0.16249989
   1668,  0.157291651, 0.0784684345,   0.13229166
   1669, 0.0410000719, 0.0359830521, 0.0956678018
   1670, 0.0620998889, 0.0503701828, 0.0864794403
   1671, 0.0521531738, 0.0218603201, 0.0795319974
   1672, 0.0354449935, 0.0530753508, 0.0826907083
   1673, 0.0172245372,  0.032707978, 0.0841517374
   1674,  0.033766821, 0.0173039231, 0.0915110484
   1675, 0.0176963229, 0.0358069576,  0.111270569
   1676,  0.035933692, 0.0194843505,  0.118804321
   1677, 0.0681971908, 0.0250414554, 0.0942754373
   1678,  0.396527767,  0.036111135, 0.0409722328
   1679,   0.40729171, 0.0541666411, 0.0364583395
   1680,  0.408333331,  0.033333309, 0.0166667011
   1681,  0.383333355,  0.033333309, 0.0166667011
   1682,  0.421527803,  0.036111135, 0.0409722328
   1683,  0.416666687, 0.0166666824, 0.0333333276
   1684,  0.388096303, 0.0497342087, 0.0631121621
   1685,  0.382291675, 0.0541666411, 0.0364583395
   1686,  0.380208343, 0.0208333228, 0.0510416478
   1687,  0.555560529, 0.0740180165,  0.132499933
   1688,  0.533072889, 0.0810695961,  0.133072942
   1689,  0.543750048, 0.0749999732,  0.149999976
   1690,  0.568750024, 0.0749999732,  0.149999976
   1691,  0.550000072, 0.0499999374,  0.156249866
   1692,  0.563216805, 0.0529161058,  0.133798733
   1693,      0.53125, 0.0749999732,  0.168749914
   1694,  0.556250095, 0.0749999732,  0.168749914
   1695,  0.107291713, 0.0784683079,  0.157291621
   1696,  0.723176837, 0.0738243088,  0.027237609
   1697,  0.699479222, 0.0627603978, 0.0199497566
   1698,  0.708333313, 0.0833332539, 0.0166666377
   1699,  0.706250072,  0.081249997, 0.0375000313
   1700,  0.982687533, 0.0668180808, 0.0337361954
   1701,   0.96121496, 0.0768994093, 0.0175153203
   1702,  0.948436081, 0.0828063637, 0.0386092477
   1703,  0.736783743, 0.0829830915, 0.0172568765
   1704, 0.0458332822, 0.0458333604, 0.0333333276
   1705, 0.0333333574,  0.033333309, 0.0166667011
   1706, 0.0416666381, 0.0666666925, 0.0166667011
   1707, 0.0583333299,  0.033333309, 0.0166667011
   1708,   0.25000003, 0.0499999374, 0.0749999881
   1709,  0.257942736, 0.0184966903,  0.066276066
   1710,  0.743086219, 0.0249786172,  0.143765658
   1711,  0.517418206, 0.0264113955,  0.118705317
   1712,   0.49238959, 0.0259722322, 0.0958141908
   1713,  0.518749952,  0.024999965,      0.09375
   1714,   0.71304065, 0.0515102483,  0.149811074
   1715,  0.891666651, 0.0166666824,  0.216666728
   1716,  0.908419251,  0.033600051,  0.233082831
   1717,  0.883333266, 0.0333333723,  0.233333305
   1718,  0.817558765,  0.016947424, 0.0347232856
   1719,  0.820252419,  0.035607297, 0.0425785743
   1720,  0.808067918, 0.0337737426, 0.0176149607
   1721,  0.804732978, 0.0210549012,  0.051342532
   1722,  0.805920541, 0.0539051592, 0.0373293199
   1723,  0.832459271, 0.0536275841, 0.0358942635
   1724,  0.841334522, 0.0172813088,  0.033970885
   1725,  0.881250024, 0.0749999732, 0.0562499799
   1726,  0.885993421, 0.0464453883,  0.044525452
   1727,  0.869549096, 0.0241027605, 0.0683624297
   1728,  0.966666698, 0.0173649229, 0.0750000551
   1729,  0.984197557, 0.0152787529, 0.0859375373
   1730,  0.882116914, 0.0207263362, 0.0529723726
   1731,  0.893689096, 0.0244068746, 0.0934432894
   1732,  0.533150077, 0.0181752834,  0.166454077
   1733,  0.543750048,  0.024999965,  0.143749952
   1734,  0.537500024, 0.0500000007,  0.137500048
   1735,  0.391406238, 0.0170171652,  0.232895464
   1736,  0.524333954, 0.0507814139,  0.156058818
   1737,  0.231770888, 0.0767340809, 0.0817708299
   1738,  0.868749917,  0.024999965,  0.118750036
   1739,  0.868749917,  0.024999965,  0.143749952
   1740,  0.858072937, 0.0810697228,  0.133072942
   1741,  0.825000048, 0.0500000007,  0.149999976
   1742,  0.817384422, 0.0251376107,   0.14355725
   1743,      0.84375,  0.024999965,  0.143749952
   1744,  0.862500072, 0.0499999374,  0.149999976
   1745,  0.893749893,  0.024999965,  0.118749976
   1746,  0.368749976,  0.024999965,  0.193750024
   1747,  0.366666675, 0.0166666824,  0.216666728
   1748,   0.34374994,  0.024999965,  0.193750024
   1749,  0.481722087, 0.0523675457, 0.0360151231
   1750,  0.483590305, 0.0343091227, 0.0173129998
   1751,  0.490209103,  0.025528254, 0.0683059916
   1752,  0.462499917, 0.0500000007, 0.0624999404
   1753,  0.487056792, 0.0501235202, 0.0620620437
   1754,  0.548342228, 0.0503764525,  0.114102297
   1755,  0.541918278,  0.025457941,  0.116835847
   1756,  0.543750048,  0.024999965,      0.09375
   1757,  0.568750024,  0.024999965,      0.09375
   1758,  0.468239456, 0.0254809354, 0.0667068064
   1759,    0.4487997, 0.0363785103, 0.0412448645
   1760,  0.693230987, 0.0240589269, 0.0425850973
   1761,  0.725606203, 0.0503886789,  0.094668746
   1762,   0.73054415, 0.0752745047, 0.0813465491
   1763,  0.540443361, 0.0493922792,   0.06262023
   1764,   0.53020823, 0.0208333228, 0.0510416478
   1765,  0.542949617, 0.0237510111, 0.0688728541
   1766,  0.518385589, 0.0252249632, 0.0699138492
   1767,  0.557291746, 0.0784684345, 0.0572916716
   1768,  0.575000048, 0.0500000007, 0.0750000551
   1769,  0.558333337, 0.0833332539, 0.0333333276
   1770,  0.556269705, 0.0524325371, 0.0330039375
   1771,  0.571264029, 0.0367706716, 0.0430789292
   1772,  0.363346368, 0.0827212259, 0.0169950761
   1773,  0.582754493, 0.0354455784, 0.0192306116
   1774,  0.592348814, 0.0192275532, 0.0367870331
   1775,   0.10839846,  0.083245717, 0.0169120952
   1776, 0.0332719125, 0.0178332254, 0.0664345548
   1777, 0.0513122194, 0.0247081388, 0.0503315628
   1778, 0.0684669092, 0.0237772353, 0.0652767494
   1779,  0.186458275, 0.0138908224,  0.238541573
   1780,  0.198869571, 0.0185410306,  0.211588189
   1781,  0.167005137, 0.0177574661,   0.21662657
   1782,  0.858179629, 0.0535283871,   0.03600429
   1783,  0.856531262, 0.0203501359, 0.0527137369
   1784,  0.867399693, 0.0175045971, 0.0334423445
   1785,  0.841666698, 0.0666666925, 0.0166667011
   1786,  0.867351055, 0.0656733289, 0.0173270609
   1787,  0.506250024, 0.0749999732, 0.0812500194
   1788,  0.532899201, 0.0775401965, 0.0825301334
   1789,  0.531766355, 0.0798150003,  0.107817814
   1790,  0.883339822, 0.0340859629, 0.0178429987
   1791,  0.890228391, 0.0507368818,  0.162093982
   1792,  0.918830097, 0.0278836992,  0.142637879
   1793,  0.912445545, 0.0483798496,  0.176347405
   1794,  0.917791367, 0.0253361315,  0.167676494
   1795,  0.868749917,  0.024999965,  0.168749914
   1796,   0.89350909, 0.0239734761,  0.144375414
   1797,  0.892279088, 0.0255443435,  0.170131579
   1798,  0.412499964, 0.0500000007, 0.0874999762
   1799,      0.40625, 0.0749999732,  0.106250055
   1800,  0.412500024, 0.0499999374,  0.112500079
   1801,  0.432552069, 0.0793354884,  0.107552089
   1802,  0.393750012,  0.024999965,      0.09375
   1803,  0.387499988, 0.0500000007,  0.100000024
   1804,  0.512399733,  0.049882181, 0.0625292733
   1805,  0.507216275, 0.0530023798, 0.0363718122
   1806,  0.505758584, 0.0750571117, 0.0571997613
   1807,      0.53125, 0.0749999732, 0.0562499799
   1808,  0.382291675, 0.0784683079, 0.0822917074
   1809,  0.408072919, 0.0810695961, 0.0830729306
   1810,  0.457516581, 0.0551617742, 0.0365042016
   1811,  0.480327457, 0.0755918622, 0.0566750169
   1812,  0.458813876, 0.0341290385, 0.0171208773
   1813,  0.459145665,  0.081927903, 0.0337291025
   1814,  0.757224083, 0.0798250139, 0.0832631513
   1815,  0.762950897, 0.0498732477, 0.0877899677
   1816,  0.737708569, 0.0504845828, 0.0752199218
   1817,  0.733479619, 0.0799862891,  0.108623236
   1818,  0.714629173,  0.049742382,  0.114256546
   1819,  0.743749976,  0.024999965,      0.09375
   1820, 0.0333332941, 0.0833332539, 0.0916666836
   1821, 0.0576141849, 0.0799691826,  0.107388534
   1822,  0.408072919, 0.0810695961,  0.158072904
   1823,  0.412500024, 0.0500000007,  0.137500048
   1824,  0.408300847,  0.081828326,  0.133300856
   1825,  0.983416378, 0.0841145366,  0.017017182
   1826,  0.983753085, 0.0595287122, 0.0166272372
   1827,  0.381770849, 0.0767342076,  0.106770866
   1828,  0.393749952,  0.024999965,  0.143749952
   1829,  0.952313185, 0.0237202253,  0.160980657
   1830,  0.943421245, 0.0218522754,  0.196756333
   1831,  0.883072913, 0.0810697228,  0.158072904
   1832,  0.418749988,  0.024999965,      0.09375
   1833,   0.43750006, 0.0499999374,  0.112500079
   1834,  0.433072895, 0.0810697228,  0.133072942
   1835,   0.43750006, 0.0499999374,  0.137500048
   1836,  0.393750012,  0.024999965,  0.118750036
   1837,  0.418749988,  0.024999965,  0.118750036
   1838, 0.0172716659, 0.0170782916,  0.188082755
   1839, 0.0166666675, 0.0166666824,  0.158333257
   1840,   0.71993643, 0.0239454135,  0.116167948
   1841,  0.693750024,  0.024999965,  0.118750036
   1842,  0.706791282, 0.0255134944, 0.0996688008
   1843,   0.68724966, 0.0516406745,  0.114273839
   1844,   0.68191421, 0.0254987981, 0.0994024426
   1845,  0.716882467, 0.0187892132, 0.0830552578
   1846,  0.966666698, 0.0166666824,  0.108333372
   1847,  0.983200252, 0.0170179885,  0.113151066
   1848,  0.217558265, 0.0811990723,   0.19519034
   1849,   0.21795854, 0.0462214053,  0.215124696
   1850,  0.205839559, 0.0753991678,  0.180253819
   1851,   0.23239103, 0.0811611935,  0.215265065
   1852,  0.215568379, 0.0663295761,  0.233137816
   1853,   0.20737578, 0.0824890062,  0.216712475
   1854,  0.276041687, 0.0458333604,  0.213541716
   1855,  0.283333331,  0.033333309,  0.233333305
   1856,  0.308333367,  0.033333309,  0.233333305
   1857,  0.316666663, 0.0166666824,  0.216666728
   1858,  0.291666687, 0.0166666824,  0.216666728
   1859,  0.383072883, 0.0810697228, 0.0580728948
   1860,   0.33849296, 0.0502088442, 0.0630081519
   1861,  0.937814534,  0.049309995,  0.188352093
   1862,  0.918749988,  0.024999965,  0.193750024
   1863,  0.964960992, 0.0406333245,  0.131396726
   1864,  0.442607492,  0.023401605,  0.192607418
   1865,  0.341666639, 0.0666666925, 0.0166667011
   1866,  0.965972185, 0.0472221784, 0.0743055493
   1867,  0.981868744, 0.0582668968, 0.0833480954
   1868,  0.948282123, 0.0601292104, 0.0827879459
   1869,  0.961243451, 0.0395861864,  0.106406383
   1870, 0.0690525919,  0.025181381,  0.143529892
   1871,  0.942435503,  0.019610595,  0.128337219
   1872,  0.368155956,  0.025196394,  0.068968378
   1873,  0.342045993, 0.0219605304, 0.0666790605
   1874,  0.362819225, 0.0488087535, 0.0751264244
   1875,  0.550943375, 0.0510775447, 0.0887901038
   1876,  0.557812512, 0.0802025422, 0.0828125253
   1877,   0.53140986,  0.053065978,  0.036941275
   1878,  0.555789053, 0.0223101247, 0.0496950187
   1879,  0.966666698, 0.0166666824,  0.133333281
   1880,   0.98263216, 0.0161458049,  0.133854225
   1881,  0.905566096, 0.0209814217, 0.0514004901
   1882,  0.918418229, 0.0245366041, 0.0696500242
   1883,  0.893749893,  0.024999965, 0.0687499642
   1884,  0.982737303, 0.0826367214, 0.0396386534
   1885,  0.908050358, 0.0528778434, 0.0358364917
   1886,  0.908084273, 0.0332972668, 0.0181178488
   1887,   0.98333329,  0.033333309,  0.116666652
   1888,  0.950086296, 0.0742549226,  0.201748714
   1889,  0.891561508, 0.0173950754, 0.0333838761
   1890,  0.265174448, 0.0507639311, 0.0262835845
   1891,  0.305208355, 0.0208333228, 0.0510417111
   1892,   0.25677079, 0.0767342076, 0.0567707941
   1893,  0.268750042,  0.024999965, 0.0437499955
   1894,  0.358333319, 0.0833332539, 0.0333333276
   1895,  0.383333355, 0.0833332539, 0.0333333276
   1896,  0.159395948,  0.067020528,   0.23288317
   1897,  0.366666675, 0.0666666925, 0.0166667011
   1898,  0.391666651, 0.0666666925, 0.0166667011
   1899,  0.432291746, 0.0541666411, 0.0364583395
   1900,   0.43750006, 0.0499999374, 0.0625000671
   1901,  0.456249952, 0.0749999732, 0.0562499799
   1902,  0.457291633, 0.0784683079, 0.0822917074
   1903,   0.43750006, 0.0499999374, 0.0875000432
   1904,  0.412500024, 0.0499999374, 0.0625000671
   1905,  0.418749988,  0.024999965, 0.0687500313
   1906,  0.432291687, 0.0784683079, 0.0822917074
   1907,  0.648073792,  0.020334173, 0.0376531333
   1908,  0.616764665, 0.0167994518, 0.0333975591
   1909,   0.98333329,  0.033333309,  0.141666695
   1910,  0.981420279, 0.0370581895,  0.167278573
   1911,  0.641966045, 0.0194111876,  0.059310127
   1912,  0.637625992,  0.050386399, 0.0498669334
   1913,   0.64160496, 0.0417783931, 0.0181815084
   1914,  0.658072889, 0.0818508789, 0.0338542052
   1915,  0.683072984, 0.0810695961, 0.0330729224
   1916,  0.783009291, 0.0734560266, 0.0833793208
   1917,  0.793991864, 0.0257759914, 0.0929087922
   1918,  0.792390287, 0.0267761294, 0.0693144277
   1919,  0.773886979, 0.0492854156, 0.0617927052
   1920,  0.782291591, 0.0784683079, 0.0572916716
   1921,  0.293457597, 0.0293804556, 0.0920843109
   1922,  0.291666687, 0.0166666824, 0.0333333276
   1923,  0.281992853, 0.0669338778, 0.0182468165
   1924,  0.638801992, 0.0833290741, 0.0162345674
   1925,  0.640364468, 0.0663452819, 0.0180059187
   1926,  0.611853302, 0.0827473253, 0.0169533323
   1927,  0.742400229, 0.0400296561, 0.0506919883
   1928,  0.747902632, 0.0183895752, 0.0345995091
   1929,  0.742805362, 0.0245964639, 0.0680056736
   1930,  0.779735267, 0.0205671526, 0.0494969413
   1931,  0.766870141,  0.022953067, 0.0663873628
   1932,  0.760018587, 0.0170893762, 0.0172120295
   1933,  0.362499952, 0.0500000007,  0.100000024
   1934,  0.368749976,  0.024999965,  0.118750036
   1935, 0.0715277568,  0.036111135, 0.0409722328
   1936, 0.0822916776, 0.0541666411, 0.0364583395
   1937, 0.0749999583, 0.0500000007, 0.0625000075
   1938, 0.0833008066, 0.0818284526, 0.0583008043
   1939,  0.106250018, 0.0749999732, 0.0437499955
   1940,  0.124105677, 0.0506922863, 0.0369773172
   1941, 0.0916666463, 0.0666666925, 0.0166667011
   1942, 0.0833333656, 0.0833332539, 0.0333333276
   1943,   0.80959022, 0.0828809813,  0.032947626
   1944,  0.816666722, 0.0666666925, 0.0166667011
   1945,  0.492708355, 0.0215315651,  0.151041597
   1946,  0.318750054,  0.024999965, 0.0687500313
   1947,  0.980364323, 0.0272015482,  0.189637214
   1948,  0.982790053, 0.0168851558,  0.209456414
   1949,  0.966666698, 0.0166666824,  0.208333328
   1950,      0.65625, 0.0749999732, 0.0687500313
   1951,  0.652191281, 0.0327484533,  0.103852481
   1952,  0.640904248, 0.0148864631, 0.0875483751
   1953,  0.624922812,  0.021966802,  0.115733914
   1954,  0.618715525, 0.0244667977, 0.0924493596
   1955,  0.685156286, 0.0851561725, 0.0177154243
   1956,  0.636375189, 0.0420410819, 0.0854423121
   1957,  0.612932086, 0.0497981235,  0.113623291
   1958,  0.643154025, 0.0249091294,  0.142970055
   1959,  0.668750048,  0.024999965,  0.118750036
   1960,  0.667712212, 0.0395088419, 0.0202427227
   1961,  0.661653638,  0.083004877, 0.0172787309
   1962,  0.434661001, 0.0402495228,  0.229663283
   1963,  0.408586591, 0.0575255193,  0.229552805
   1964,  0.409633785, 0.0324481428,  0.232514769
   1965,  0.433864176,  0.066524677,  0.232283309
   1966,  0.806770921, 0.0767342076,  0.131770834
   1967,  0.781770766, 0.0767340809,  0.131770834
   1968,  0.758181751, 0.0810807422,  0.108222581
   1969,  0.782696605, 0.0775812417,  0.105839834
   1970,  0.982984126, 0.0791666135,  0.164583281
   1971,  0.981693149, 0.0632619485,  0.179357752
   1972,  0.966666698, 0.0833332539,  0.191666633
   1973, 0.0937499702,  0.024999965, 0.0687499642
   1974,  0.157629594, 0.0780898929,  0.108699881
   1975,  0.107291713, 0.0784683079,   0.13229166
   1976,  0.543750048,  0.024999965,  0.193750024
   1977,  0.516764879, 0.0266858656,  0.146278888
   1978,  0.982369065, 0.0394485407, 0.0587181784
   1979,  0.117425099, 0.0249793138, 0.0705703497
   1980,  0.982765317,  0.037180189, 0.0375020579
   1981,  0.131485566, 0.0761933774,  0.106256768
   1982, 0.0817708597, 0.0767342076,  0.106770866
   1983, 0.0830728933, 0.0810695961, 0.0830729306
   1984,  0.956506431, 0.0628709942,  0.104512081
   1985,  0.931250095, 0.0749999732, 0.0812500194
   1986,  0.944045961, 0.0239565633, 0.0941723138
   1987,  0.925000072, 0.0500000007, 0.0874999762
   1988,   0.94074434, 0.0823201314, 0.0958749428
   1989,  0.866666675, 0.0166666824,  0.216666728
   1990,  0.108333342,  0.033333309,  0.233333305
   1991,  0.068749994,  0.024999965,  0.193750024
   1992, 0.0833333656,  0.033333309,  0.233333305
   1993,  0.616646409,  0.065785706,   0.23267667
   1994,  0.616666734,  0.033333309,  0.233333305
   1995,  0.658333361,  0.033333309,  0.233333305
   1996, 0.0937500298,  0.024999965,  0.193750024
   1997,  0.116666682, 0.0166666824,  0.216666728
   1998,  0.141666651, 0.0166666824,  0.216666728
   1999,   0.13333337,  0.033333309,  0.233333305
   2000,  0.668203771,  0.025538262,  0.168568626
   2001,  0.675820112, 0.0505503342,  0.162250951
   2002,  0.639035881,  0.048791144,  0.176594436
   2003,  0.642852366, 0.0245887358,  0.168164238
   2004,   0.19188495, 0.0661043227,  0.232474864
   2005,  0.197514966, 0.0362811498,  0.232406452
   2006,  0.241666675, 0.0166666824,  0.216666728
   2007,  0.233249962,  0.033366058,  0.233302638
   2008,  0.198611572, 0.0456746183,   0.20082517
   2009,  0.242408112, 0.0661429614,  0.232215032
   2010,  0.893749893,  0.024999965,  0.193750024
   2011,   0.77977252, 0.0450440943,  0.214787453
   2012,   0.61041671, 0.0152815394, 0.0145833166
   2013,  0.458593756, 0.0828955472,  0.232982874
   2014,  0.758333266, 0.0333333723,  0.233333305
   2015,  0.683333337, 0.0666666925,  0.233333305
   2016,  0.891406178, 0.0171044525,  0.232982755
   2017,  0.683333337,  0.033333309,  0.233333305
   2018,  0.792622268, 0.0249416251,  0.143671528
   2019,  0.818677425, 0.0256767944,  0.168490469
   2020,  0.810887754, 0.0510204099,  0.185853809
   2021,  0.808000505, 0.0813402012,  0.183023483
   2022,  0.793750048,  0.024999965,  0.193750024
   2023,  0.792279065, 0.0249236356,  0.168623492
   2024,  0.806912124, 0.0761712044,  0.156851768
   2025,  0.920065939, 0.0275652688,  0.116694212
   2026,  0.908072889, 0.0810695961,  0.133072942
   2027,  0.358333319,  0.033333309,  0.233333305
   2028,  0.383757114, 0.0340066552,  0.232808933
   2029,  0.333333343,  0.033333309,  0.233333305
   2030,  0.333333343, 0.0666666925,  0.233333305
   2031,  0.258333355,  0.033333309,  0.233333305
   2032,  0.941252112, 0.0332332887,  0.232781187
   2033,  0.182601944, 0.0833308473,  0.217519984
   2034,  0.178239644, 0.0628087893,  0.210762948
   2035,  0.192542464, 0.0819980875,  0.192945302
   2036,  0.133306265, 0.0353548713, 0.0169777833
   2037,  0.116666682, 0.0666666925, 0.0166667011
   2038,  0.141666651, 0.0666666925, 0.0166667011
   2039,  0.108574681, 0.0344004035, 0.0174218882
   2040,  0.116796859, 0.0184967536, 0.0332031548
   2041,  0.138849556, 0.0510308594, 0.0556470715
   2042,  0.173854962, 0.0497596115, 0.0388873294
   2043,  0.157965958, 0.0812493637, 0.0581834279
   2044,  0.133202374, 0.0816684514, 0.0832613781
   2045,  0.132731542, 0.0243701357, 0.0525160432
   2046,  0.155852675, 0.0757200643, 0.0323512442
   2047,  0.158014163,   0.05761813, 0.0194164626
   2048,  0.131250054, 0.0749999732, 0.0437499955
   2049,  0.120963626, 0.0780347809, 0.0627604127
   2050,  0.457742006, 0.0182080958,  0.216262221
   2051,  0.458333343,  0.033333309,  0.233333305
   2052,   0.98333329,  0.033333309, 0.0833333358
   2053, 0.0822916776, 0.0784684345,   0.13229166
   2054, 0.0560866445, 0.0760039762,   0.13148731
   2055, 0.0926857293, 0.0256932005,  0.117663436
   2056, 0.0874018222, 0.0503919721,  0.137009263
   2057,  0.068214424, 0.0250151046,  0.118780948
   2058,  0.443750024,  0.024999965,  0.118750036
   2059,  0.462115794, 0.0492027551,  0.112631455
   2060,  0.449999988, 0.0500000007,   0.16249989
   2061,  0.418749988,  0.024999965,  0.143749952
   2062,  0.443749964,  0.024999965,  0.168749914
   2063,  0.433300793, 0.0818284526,  0.158300817
   2064,  0.971708655, 0.0639142692, 0.0608581305
   2065,   0.97868824, 0.0611353666,  0.115662143
   2066,  0.533625782, 0.0761407986,  0.232092768
   2067,  0.560590804, 0.0664288998,  0.233009607
   2068,  0.391666651, 0.0166666824,  0.216666728
   2069,  0.418749988,  0.024999965,  0.168749914
   2070,  0.218568549, 0.0249023512,  0.117814191
   2071,  0.198979095, 0.0495411381,  0.100565121
   2072,  0.206250042, 0.0749999732,  0.106250055
   2073,  0.218750015,  0.024999965,      0.09375
   2074,  0.817259014, 0.0491223708,  0.230616346
   2075,  0.832571387, 0.0664567724,  0.232742548
   2076,  0.813585937, 0.0857200548,  0.237612441
   2077,  0.804222941, 0.0471744798,  0.211185709
   2078,  0.791666627,  0.033333309,  0.233333305
   2079,  0.807658315, 0.0821730494,  0.216229662
   2080,  0.819565773, 0.0781882033,  0.199761868
   2081,  0.841624141,  0.054453209,  0.204862967
   2082,  0.833636701, 0.0339247547,  0.232559994
   2083,  0.167794973, 0.0240647532, 0.0430026613
   2084,  0.183333322,  0.033333309, 0.0166667011
   2085,  0.158920482, 0.0327151343, 0.0166041795
   2086,  0.142039433, 0.0202907193, 0.0325124525
   2087,  0.191425323,  0.065599598, 0.0174218882
   2088,  0.230208322, 0.0208333228, 0.0510416478
   2089,  0.483333319, 0.0666666925,  0.233333305
   2090,  0.908610702, 0.0828775615, 0.0331866853
   2091,  0.241666675, 0.0166666824, 0.0333333276
   2092,  0.417275459, 0.0173010733,  0.215442419
   2093, 0.0417005271,  0.017297145,   0.21243231
   2094, 0.0333332941, 0.0333333723,  0.233333305
   2095, 0.0427083299, 0.0208333228,  0.188541621
   2096, 0.0166666675, 0.0166666824,  0.208333328
   2097,  0.575000048, 0.0500000007,  0.100000024
   2098,  0.568750024,  0.024999965,  0.118750036
   2099,  0.583228052, 0.0814654976,  0.133067742
   2100,  0.275000006, 0.0499999374,  0.149999976
   2101,    0.2578125, 0.0802026689,  0.157812446
   2102, 0.0174659416, 0.0615656003,   0.11267256
   2103, 0.0336888433, 0.0820226669, 0.0610323884
   2104,  0.483333319, 0.0166666824,  0.216666728
   2105,  0.985944927, 0.0136759598, 0.0634440184
   2106,   0.18750003, 0.0500000007,  0.137500048
   2107,  0.168169975, 0.0249059629,  0.118073843
   2108,  0.181250006, 0.0749999732,      0.15625
   2109,  0.207873985,  0.078304626,  0.157616585
   2110,  0.207648352, 0.0804279223,  0.132331312
   2111,  0.568418503, 0.0249217991, 0.0682066008
   2112,  0.541666687, 0.0666666925, 0.0166667011
   2113,  0.533333361, 0.0833332539, 0.0333333276
   2114,  0.583333313, 0.0833332539, 0.0333333276
   2115,  0.558453441, 0.0340683535, 0.0178582016
   2116,  0.566666782, 0.0666666925, 0.0166667011
   2117, 0.0937500298,  0.024999965,  0.143749952
   2118, 0.0873434171, 0.0503575131,  0.162234992
   2119, 0.0937499702,  0.024999965,  0.168749914
   2120,   0.83307296, 0.0810697228,  0.133072942
   2121,  0.868749917,  0.024999965,  0.193750024
   2122,  0.841780365, 0.0824548006,  0.216259688
   2123,   0.85833329, 0.0666666925,  0.233333305
   2124,  0.508333266, 0.0666666925,  0.233333305
   2125,   0.50154382, 0.0491626561, 0.0887947902
   2126,  0.768288136,  0.052965641, 0.0348557383
   2127,  0.783333361, 0.0833332539, 0.0333333276
   2128,         0.75,  0.081249997, 0.0375000313
   2129,   0.75781244, 0.0802026689, 0.0578124858
   2130,   0.76079154, 0.0369636193, 0.0176190138
   2131,   0.78380692, 0.0345706083, 0.0173551235
   2132,  0.766666651, 0.0666666925, 0.0166667011
   2133,  0.742361069, 0.0527777597, 0.0340277664
   2134,  0.593828797, 0.0271607544, 0.0683333501
   2135,  0.567481875, 0.0188403316, 0.0340268798
   2136,  0.106250018,  0.024999965,  0.049999956
   2137,  0.431250036, 0.0749999732, 0.0562500432
   2138,  0.443750024,  0.024999965,      0.09375
   2139,   0.46874994,  0.024999965,      0.09375
   2140,  0.443750024,  0.024999965, 0.0687500313
   2141,  0.474599808, 0.0504572801, 0.0887021199
   2142, 0.0583333299,  0.033333309,  0.233333305
   2143,  0.056808386,  0.068429932,  0.232173592
   2144, 0.0916666463, 0.0833332539,  0.216666728
   2145,  0.458072871, 0.0810697228,  0.108072899
   2146,  0.457161397, 0.0780349076,  0.132161543
   2147,  0.462499917, 0.0500000007,  0.137499928
   2148, 0.0312500373, 0.0749999732,        0.125
   2149, 0.0830728933, 0.0810697228,  0.158072904
   2150,  0.731250048, 0.0749999732,  0.131250024
   2151,   0.70807296, 0.0810697228,  0.108072899
   2152,  0.358072907, 0.0810695961, 0.0580728948
   2153,  0.335352868, 0.0522902645, 0.0895595476
   2154,  0.357291698, 0.0784683079, 0.0822917074
   2155,  0.337499917, 0.0500000007,  0.112499952
   2156,   0.34374994,  0.024999965,  0.118749976
   2157,  0.393749952,  0.024999965, 0.0687499642
   2158,   0.34374994,  0.024999965,      0.09375
   2159,  0.608268321, 0.0817200094,  0.133268297
   2160,  0.281283975, 0.0752462521,  0.156241134
   2161,  0.299823433, 0.0510197766,  0.150172651
   2162,      0.84375,  0.024999965,  0.168749914
   2163,  0.856250048, 0.0749999732,  0.181249976
   2164,  0.838077366, 0.0515126549,  0.174196362
   2165,  0.731250048, 0.0749999732, 0.0562499799
   2166, 0.0580729246, 0.0810695961, 0.0580728948
   2167, 0.0575644597, 0.0802546144, 0.0824026838
   2168,      0.40625, 0.0749999732, 0.0562500432
   2169,  0.408333331, 0.0833332539, 0.0333333276
   2170,  0.633393824, 0.0816076398, 0.0830879435
   2171,  0.943698406, 0.0261756927, 0.0679119229
   2172,  0.249773815, 0.0780469477, 0.0306928977
   2173,  0.262924969, 0.0769893527,  0.014164486
   2174,  0.318750054,  0.024999965,      0.09375
   2175,   0.33313027, 0.0747367144, 0.0813595355
   2176,  0.482812494, 0.0802025422,  0.107812494
   2177,  0.482291669, 0.0784683079, 0.0822917074
   2178,  0.791568696,  0.017659599, 0.0333013386
   2179,  0.786200941, 0.0457192138, 0.0454400741
   2180,  0.912499964, 0.0500000007, 0.0625000075
   2181,  0.906011522, 0.0758438408,  0.106138885
   2182,  0.791666627, 0.0666666925, 0.0166667011
   2183,  0.741324008, 0.0663326159, 0.0167899039
   2184,  0.484094441, 0.0819317028, 0.0337036997
   2185,  0.466666609, 0.0666666925, 0.0166667011
   2186,  0.433333367, 0.0833332539, 0.0333333276
   2187,  0.441666633, 0.0666666925, 0.0166667011
   2188,  0.491666645, 0.0666666925, 0.0166667011
   2189,  0.333072871, 0.0810697228,  0.108072899
   2190,  0.300000042, 0.0500000007,   0.12500006
   2191,  0.274640083, 0.0499595888,  0.123880081
   2192,  0.917375684, 0.0249063428, 0.0946287736
   2193,  0.805422068, 0.0757683367, 0.0564093553
   2194,  0.491276026, 0.0166687723,  0.232851118
   2195,  0.511458397, 0.0114583494,  0.236109152
   2196,  0.717757761,  0.019582279, 0.0348835438
   2197,  0.724036038, 0.0510314293,  0.046112217
   2198,  0.683072984, 0.0810697228,  0.158072904
   2199,  0.975954592, 0.0815759674,  0.210434705
   2200,  0.957967162, 0.0827188194,  0.232001305
   2201,  0.318750054,  0.024999965,  0.143749952
   2202,  0.293750018,  0.024999965,  0.143749952
   2203,  0.324999988, 0.0500000007,  0.137500048
   2204,  0.282161534, 0.0780346543,  0.132161543
   2205,  0.602348685, 0.0491935685, 0.0876219124
   2206,  0.587499976, 0.0500000007,   0.12500006
   2207,  0.158317506,  0.077362068,  0.209151104
   2208,  0.173455462,   0.04518231,   0.20132558
   2209,      0.59375,  0.024999965,      0.09375
   2210,  0.960505247, 0.0441233888,  0.178878754
   2211,  0.970783949, 0.0523612127,  0.193294063
   2212,  0.952244699, 0.0351824462,   0.21247679
   2213,  0.525681913, 0.0490728989, 0.0981235877
   2214,  0.946294904, 0.0563442819,  0.216880843
   2215,  0.318750054,  0.024999965,  0.118750036
   2216,  0.318749964,  0.024999965,  0.168749914
   2217,  0.331770778, 0.0767342076,   0.15677081
   2218,  0.308221698,  0.079935357,  0.158881187
   2219,  0.607612431, 0.0788060576,  0.107563615
   2220,  0.668750048,  0.024999965,  0.143749952
   2221,  0.593750119, 0.0749999732,  0.149999976
   2222,   0.46874994,  0.024999965,  0.168749914
   2223,  0.357552111, 0.0793353617,  0.107552089
   2224,  0.308072895, 0.0810697228,  0.133072942
   2225,  0.458072871, 0.0810697228,  0.158072904
   2226,  0.341666639, 0.0166666824,  0.216666728
   2227, 0.0333332941, 0.0583332814,  0.233333305
   2228,  0.256250054, 0.0749999732,  0.131250024
   2229,  0.220092729, 0.0256882608,  0.145411074
   2230,  0.333072871, 0.0810697228,  0.133072942
   2231,  0.913346291, 0.0169950575, 0.0172787309
   2232,  0.938346386, 0.0169949941, 0.0172787309
   2233, 0.0172786955,  0.083004877,  0.186653718
   2234,  0.982181787, 0.0736117288,  0.134316251
   2235,  0.718134046, 0.0438918658, 0.0185639169
   2236,  0.568750024,  0.024999965,  0.143749952
   2237,  0.566666782, 0.0833332539,  0.216666728
   2238,  0.581250072, 0.0749999732,  0.200000048
   2239,  0.293750018,  0.024999965,  0.118750036
   2240,  0.708333313, 0.0666666925,  0.233333305
   2241,   0.73333329,  0.033333309,  0.233333305
   2242,  0.708333313,  0.033333309,  0.233333305
   2243,  0.716666698, 0.0166666824,  0.216666728
   2244,  0.518749952, 0.0749999732,  0.149999976
   2245,  0.512758493, 0.0506585874,  0.124836512
   2246,  0.858072937, 0.0810697228,  0.158072904
   2247,   0.51666671, 0.0166666824, 0.0333333276
   2248,  0.508333266,  0.033333309, 0.0166667011
   2249,   0.51666671, 0.0666666925, 0.0166667011
   2250,  0.508072913, 0.0810697228,  0.108072899
   2251,  0.488344252, 0.0490429997,  0.124453656
   2252,  0.557758689, 0.0789288208,  0.109010205
   2253,  0.193749979,  0.024999965,  0.118750036
   2254,  0.193749979,  0.024999965,  0.168749914
   2255,   0.18307291, 0.0810695961, 0.0830729306
   2256,  0.206770852, 0.0767340809, 0.0817708299
   2257,   0.44215402, 0.0171741322, 0.0344965123
   2258,  0.433333367,  0.033333309, 0.0166667011
   2259,  0.391666651, 0.0166666824, 0.0333333276
   2260,  0.541939199, 0.0180631001, 0.0321621597
   2261,    0.7355479, 0.0225359462, 0.0149175832
   2262,  0.368749976,  0.024999965,      0.09375
   2263,  0.594791651, 0.0541666411,  0.216666728
   2264,  0.608576655, 0.0809289739,  0.202176929
   2265,  0.638703167, 0.0845094249,  0.235810056
   2266,  0.169874996, 0.0241925195, 0.0697760135
   2267,  0.841666698, 0.0166666824,  0.216666728
   2268,  0.833410859, 0.0780402347,  0.181583673
   2269,  0.832888007, 0.0810854286,  0.158496812
   2270,   0.85833329,  0.033333309,  0.233333305
   2271,  0.819156766, 0.0253068022,  0.194600984
   2272,  0.193749979,  0.024999965,  0.143749952
   2273, 0.0170053039, 0.0839304626, 0.0356090888
   2274, 0.0125014195, 0.0622395799, 0.0146719981
   2275, 0.0131095219,  0.037760485, 0.0145847099
   2276,  0.333593756, 0.0828955472,  0.232982874
   2277,  0.358593732, 0.0828954205,  0.232982755
   2278,  0.631250024, 0.0749999732,  0.037499968
   2279, 0.0166562777, 0.0169180948,  0.233024433
   2280,   0.16778402, 0.0251300093,  0.093585752
   2281,  0.194549575, 0.0238601528, 0.0935338736
   2282, 0.0173676945, 0.0838541985,  0.233854234
   2283,  0.416666687, 0.0666666925, 0.0166667011
   2284,  0.833333313, 0.0833332539, 0.0333333276
   2285,  0.241406262, 0.0170172285,  0.232895464
   2286, 0.0835937709, 0.0828955472,  0.232982755
   2287,  0.416647404, 0.0829424262,   0.23313871
   2288,    0.4154948, 0.0161494166,  0.234156132
   2289,  0.481150866, 0.0748527646,  0.132715046
   2290,  0.494800866, 0.0731258765,  0.146760434
   2291,  0.508031905, 0.0809869915,  0.132418588
   2292,  0.116406277, 0.0170172285,  0.232895464
   2293, 0.0914062411, 0.0171044525,  0.232982755
   2294, 0.0916666463, 0.0166666824,  0.216666728
   2295,  0.388346344, 0.0169949941, 0.0172787309
   2296,  0.908854187, 0.0838541985,  0.232632205
   2297,  0.110937536, 0.0170186851, 0.0164949745
   2298,   0.14114584, 0.0161458049,  0.232632205
   2299,  0.062331602, 0.0840712115,  0.237815142
   2300,  0.235451862, 0.0594919696, 0.0198454279
   2301,  0.216509804, 0.0655800849, 0.0169954561
   2302,  0.258333355,  0.033333309, 0.0166667011
   2303,  0.561067641, 0.0853258073,  0.234243423
   2304, 0.0916666463, 0.0166666824, 0.0333333276
   2305, 0.0672947317, 0.0161890686, 0.0338140465
   2306, 0.0415573083, 0.0166025143, 0.0331687592
   2307, 0.0138907433, 0.0885415226,  0.138541684
   2308, 0.0151041606, 0.0840229467, 0.0151041308
   2309,  0.687500119, 0.0499999374,  0.137500048
   2310,  0.216406226, 0.0170171652,  0.232895464
   2311,  0.707812488, 0.0802026689,   0.13281247
   2312,  0.682425141,  0.080998905,  0.133829892
   2313,  0.717594981, 0.0256479103,  0.142646238
   2314,  0.693750024,  0.024999965,  0.143749952
   2315,  0.181250006, 0.0749999732, 0.0312500075
   2316,   0.31640625, 0.0170171652,  0.232895464
   2317,  0.483593702, 0.0828954205,  0.232982755
   2318,  0.741275966, 0.0171924382,  0.233374849
   2319,  0.716406226, 0.0171044525,  0.232982755
   2320,  0.508593738, 0.0828955472,  0.232982874
   2321,  0.541406333, 0.0170172285,  0.232895464
   2322,  0.888346314, 0.0169949941, 0.0172787309
   2323,   0.46874994,  0.024999965,  0.143749952
   2324,   0.46874994,  0.024999965,  0.118749976
   2325,  0.666777372, 0.0837783068,    0.2183204
   2326,  0.583333313, 0.0666666925,  0.233333305
   2327,  0.965663612, 0.0828019232,  0.112514585
   2328, 0.0172786321, 0.0616536476,  0.233004928
   2329,  0.167151466, 0.0245943107,  0.193268612
   2330, 0.0163203645, 0.0401042141,  0.232806787
   2331,  0.216145828, 0.0161458049, 0.0173677914
   2332,  0.191067755, 0.0165370181, 0.0178395137
   2333,  0.434895813, 0.0845466703,  0.234372139
   2334,  0.163932264, 0.0864998251,  0.234890923
   2335,  0.159561589,  0.034809351,  0.232294589
   2336, 0.0171382632, 0.0164283197, 0.0886081159
   2337, 0.0408854187,  0.017020015,  0.234114587
   2338, 0.0664062649, 0.0171045158,  0.232982755
   2339, 0.0172786321,  0.083004877,  0.211653695
   2340, 0.0169949792, 0.0827212259,  0.163346305
   2341,      0.84375,  0.024999965,  0.193750024
   2342,   0.34374994,  0.024999965,  0.168749914
   2343,  0.926141739, 0.0171973146,  0.217039704
   2344, 0.0172375236, 0.0836802572, 0.0587239414
   2345, 0.0208333712, 0.0177140757,  0.135416672
   2346,  0.583333313,  0.033333309,  0.233333305
   2347,  0.591796219, 0.0832354501,  0.217243552
   2348, 0.0170172118, 0.0171045158,  0.112239607
   2349,  0.492711067, 0.0242685955,  0.119435295
   2350,  0.192609727, 0.0246779229,  0.193728864
   2351, 0.0173369087, 0.0165484194,  0.064972192
   2352, 0.0172552597, 0.0170604922, 0.0410837829
   2353, 0.0168917906, 0.0165327098,  0.016734669
   2354,  0.633333266, 0.0166666824, 0.0166667011
   2355,  0.682722211, 0.0168493669, 0.0181322899
   2356,  0.658418477, 0.0160442013, 0.0162279159
   2357,  0.666666627, 0.0666666925, 0.0166667011
   2358,  0.137239605, 0.0829827115, 0.0171044711
   2359,  0.541666687, 0.0166666824,  0.216666728
   2360,  0.959878385, 0.0439445674,  0.230511203
   2361,   0.98333329,  0.033333309,  0.216666728
   2362,  0.981909394, 0.0582870431,   0.21662569
   2363,  0.959114611,  0.014587543,  0.238452882
   2364,  0.508333266, 0.0833332539, 0.0333333276
   2365,  0.133593783, 0.0828955472,  0.232982755
   2366,  0.108593747, 0.0828954205,  0.232982755
   2367,  0.234424174, 0.0836095586,  0.233677641
   2368,  0.691927075, 0.0419271253, 0.0181490127
   2369,  0.188541651, 0.0885415226,  0.236109287
   2370,  0.208702266, 0.0828907341,  0.233441487
   2371,  0.158984333, 0.0839843079, 0.0175416078
   2372,   0.90624994, 0.0749999732, 0.0562499799
   2373,  0.162499994, 0.0125000421,  0.237500072
   2374,  0.266406238, 0.0171044525,  0.232982755
   2375,      0.59375,  0.024999965,  0.118750036
   2376,  0.533333361,  0.033333309, 0.0166667011
   2377,  0.883609831, 0.0824824199, 0.0342716426
   2378,   0.85833329, 0.0833332539, 0.0333333276
   2379,  0.291406274, 0.0171045158,  0.232982755
   2380, 0.0666666776, 0.0166666824,  0.216666728
   2381,   0.18307291, 0.0810695961,  0.133072942
   2382,  0.143750042,  0.024999965,  0.193750024
   2383,  0.232387036, 0.0822561532, 0.0167569648
   2384,  0.208288759, 0.0821876153,  0.033851482
   2385,  0.189290375, 0.0841521695, 0.0145522151
   2386,  0.341406226, 0.0171044525,  0.232982755
   2387,  0.366406262, 0.0170172285,  0.232895464
   2388,  0.538346291, 0.0827212259, 0.0169950761
   2389,  0.562239647, 0.0829827115, 0.0171044711
   2390,  0.891666651, 0.0666666925, 0.0166667011
   2391,  0.443750024,  0.024999965,  0.143749952
   2392,  0.384112626, 0.0838182196,  0.232854679
   2393,  0.587304771, 0.0830478296, 0.0171914417
   2394,   0.58965975, 0.0890809596,  0.235460386
   2395,   0.56640631, 0.0171044525,  0.232982755
   2396,  0.615844369, 0.0872216895,  0.235368788
   2397,  0.941271603, 0.0660584643,   0.23247017
   2398,  0.966690004, 0.0666367933,  0.231866255
   2399,   0.63854152, 0.0138908224,  0.236458436
   2400,  0.588541746, 0.0135416705,  0.236109152
   2401,  0.583694279, 0.0800588802,  0.108630329
   2402,  0.266666651, 0.0166666824,  0.216666728
   2403,   0.68359381, 0.0829828382,  0.232895598
   2404,  0.808222234, 0.0174743179,  0.216582999
   2405,  0.691666782, 0.0166666824,  0.216666728
   2406,  0.666406333, 0.0170172285,  0.232895464
   2407,  0.762760401, 0.0127603859,  0.235066131
   2408,  0.733593762, 0.0829827115,  0.232895598
   2409,   0.69140631, 0.0171044525,  0.232982755
   2410,  0.866406202, 0.0171044525,  0.232982755
   2411, 0.0583333299, 0.0833332539, 0.0333333276
   2412,  0.758723974, 0.0826329216,  0.233549431
   2413,  0.708593786, 0.0828955472,  0.232982755
   2414,  0.837500095, 0.0874998942,  0.237499937
   2415,  0.858854234, 0.0838541985,  0.232632205
   2416,  0.986535788, 0.0615364611,  0.237622574
   2417,  0.984361708, 0.0842435062,   0.23566246
   2418,  0.836458445, 0.0138908224,  0.238541573
   2419,  0.181250006, 0.0749999732,  0.106250055
   2420,  0.763346314, 0.0827213526, 0.0169950128
   2421,  0.787500024, 0.0124999788,  0.237499937
   2422,  0.911786854, 0.0121054724,  0.236341253
   2423,  0.813028753, 0.0139294621,  0.237731531
   2424,  0.888346314, 0.0827213526, 0.0169950128
   2425,  0.863346338, 0.0827212259, 0.0169950128
   2426,  0.910091162,  0.083244957, 0.0173885692
   2427,  0.338346332, 0.0827212259, 0.0169950128
   2428,  0.883593738, 0.0828955472,  0.232982874
   2429,  0.308723956, 0.0833749324, 0.0151091348
   2430, 0.0838541836, 0.0838541985, 0.0173677281
   2431,   0.93359381, 0.0829827115,  0.232895598
   2432, 0.0883463472, 0.0169949941, 0.0172787309
   2433, 0.0833333656,  0.033333309, 0.0166667011
   2434,  0.934056699,  0.013425244,  0.235996276
   2435,  0.982982099, 0.0360677429,  0.235283539
   2436,  0.985728443, 0.0167076029,  0.234864831
   2437, 0.0362957641, 0.0162049048, 0.0157063417
   2438, 0.0633463115, 0.0169950575, 0.0172787309
   2439,  0.238346368, 0.0169950575, 0.0172787309
   2440,  0.813346386, 0.0169949941, 0.0172787309
   2441,   0.79010421, 0.0151041765,  0.015977012
   2442,  0.513346314, 0.0169949941, 0.0172787309
   2443,  0.538346291, 0.0169950575, 0.0172787309
   2444,  0.588346362, 0.0169949941, 0.0172787309
   2445,  0.563346386, 0.0169949941, 0.0172787309
   2446,  0.658593714, 0.0828954205,  0.232982755
   2447,  0.982546389, 0.0833318606,  0.114843741
   2448,  0.135853142,  0.017509982, 0.0168234129
   2449,  0.166473374, 0.0167037398, 0.0172335021
   2450,  0.309895813, 0.0135445204, 0.0154532827
   2451,  0.291145861, 0.0161458049, 0.0173677914
   2452,  0.513346314, 0.0827212259, 0.0169950128
   2453,  0.488346338, 0.0827212259, 0.0169950761
   2454,  0.463346303, 0.0827212259, 0.0169950128
   2455,  0.418749988,  0.024999965,  0.193750024
   2456,  0.788346291, 0.0827212259, 0.0169950761
   2457,  0.813346386, 0.0827212259, 0.0169950128
   2458,  0.940626144, 0.0827751979, 0.0164004024
   2459,  0.985416651, 0.0847183317,  0.185416609
   2460,  0.982693255, 0.0166414715,  0.158466026
   2461,  0.438346416, 0.0827212259, 0.0169950128
   2462,   0.41334632, 0.0827212259, 0.0169950761
   2463,  0.609014273, 0.0330900699, 0.0167022999
   2464,   0.41334632, 0.0169950575, 0.0172787309
   2465,  0.263346344, 0.0169949941, 0.0172787309
   2466,  0.436653614, 0.0172787122, 0.0169950761
   2467,  0.210774764, 0.0832662359, 0.0173119865
   2468,  0.838346362, 0.0827212259, 0.0169950128
   2469,  0.463346303, 0.0169949941, 0.0172787309
   2470,  0.388346344, 0.0827212259, 0.0169950128
   2471,  0.708333313, 0.0166666824, 0.0166667011
   2472,  0.062239565, 0.0829827115, 0.0171045344
   2473, 0.0666666776, 0.0666666925, 0.0166667011
   2474, 0.0377604067, 0.0828955472,  0.017017182
   2475,  0.488346338, 0.0169950575, 0.0172787309
*ELEMENT, TYPE=C3D4, ELSET=EALL
    1, 1203, 1204, 1205, 1206
    2, 1203, 1207, 1208, 1205
    3, 1203, 1205, 1209, 1206
    4, 1203, 1210, 1211, 1212
    5, 1203, 1211, 1213, 1214
    6, 1203, 1213, 1215, 1209
    7, 1203, 1211, 1214, 1216
    8, 1217, 1218, 1219, 1220
    9, 1221, 1222, 1223, 1224
   10, 1221, 1225, 1226, 1227
   11, 1224, 1228, 1226, 1221
   12, 1221, 1229, 1230, 1227
   13, 1221, 1229, 1231, 1230
   14, 1221, 1231, 1229, 1223
   15, 1232, 1233, 1234, 1235
   16, 1233, 1235, 1232, 1236
   17, 1237, 1238, 1239, 1240
   18,  435, 1234, 1241, 1233
   19, 1233, 1242, 1241, 1243
   20, 1233,  434, 1235, 1244
   21, 1245, 1246, 1247, 1248
   22, 1245, 1246, 1249, 1250
   23, 1245, 1251, 1252, 1253
   24, 1245, 1254, 1246, 1250
   25, 1245, 1251, 1253, 1255
   26, 1256, 1257, 1258, 1259
   27, 1260, 1250, 1255, 1251
   28, 1261, 1262, 1263, 1264
   29, 1261, 1265, 1262, 1266
   30, 1267, 1268,  463,  502
   31, 1261, 1269, 1270, 1271
   32, 1261, 1270, 1263, 1262
   33, 1272, 1273, 1274, 1275
   34, 1272, 1275, 1276, 1277
   35, 1276, 1272, 1274, 1275
   36, 1272, 1278, 1273, 1275
   37, 1272, 1279,  402, 1280
   38, 1272,  402, 1279, 1277
   39, 1281, 1275, 1282, 1283
   40, 1284, 1260, 1285, 1251
   41, 1286, 1287, 1288, 1281
   42, 1286, 1281, 1289, 1290
   43, 1281, 1288, 1291, 1292
   44, 1281, 1289, 1290, 1293
   45, 1294, 1295,  236,  235
   46, 1294, 1296, 1297, 1298
   47, 1294, 1297, 1299, 1298
   48, 1294, 1297, 1300, 1299
   49, 1294, 1297,  235, 1300
   50, 1301, 1302, 1303,  411
   51, 1304,  233,  230,   19
   52, 1301, 1305, 1306, 1307
   53, 1301, 1308, 1305, 1307
   54, 1301, 1305, 1309, 1306
   55, 1235, 1310, 1311, 1312
   56, 1235, 1312, 1313, 1236
   57, 1235,  434, 1314,  433
   58, 1315, 1316, 1317,  716
   59, 1234, 1318, 1232, 1235
   60, 1242, 1232, 1233, 1234
   61, 1319,  711, 1320, 1321
   62, 1235, 1314,  434, 1234
   63, 1284, 1322, 1323, 1324
   64, 1284, 1285, 1325, 1251
   65, 1315, 1317, 1326,  716
   66, 1327, 1251, 1250, 1284
   67, 1284, 1327, 1322, 1250
   68, 1328, 1165, 1329, 1330
   69, 1165, 1166, 1329, 1330
   70, 1331, 1307,  370,  371
   71, 1330, 1332, 1328, 1333
   72, 1330, 1334, 1335, 1336
   73, 1330, 1337, 1338, 1334
   74, 1339, 1340, 1341, 1342
   75, 1343, 1339, 1344, 1341
   76, 1272, 1339, 1278, 1279
   77, 1339,  403, 1343, 1345
   78, 1339, 1279,  403, 1345
   79, 1346, 1347, 1348, 1323
   80, 1349,  474,  514,  513
   81, 1284, 1350, 1285, 1351
   82, 1346, 1348, 1352, 1323
   83, 1284, 1346, 1353, 1323
   84, 1346, 1354, 1351, 1353
   85, 1355, 1356, 1357, 1358
   86, 1355, 1359, 1360, 1361
   87, 1358, 1362, 1363, 1355
   88, 1355, 1357, 1360, 1358
   89, 1355, 1364, 1361, 1365
   90, 1366, 1367, 1267, 1368
   91, 1331,  105, 1369,  273
   92, 1368, 1370, 1371, 1372
   93, 1368, 1367, 1267, 1268
   94, 1368, 1373, 1267, 1374
   95, 1375, 1376, 1377,  632
   96, 1368, 1370, 1374, 1378
   97,  474, 1349, 1379,  513
   98, 1380, 1331, 1306,  276
   99, 1381,   52, 1382,  296
  100, 1383, 1384, 1385, 1349
  101, 1349,  475, 1386,  514
  102, 1349,  514, 1385,  553
  103, 1349, 1387, 1386, 1388
  104, 1349, 1388, 1389, 1387
  105, 1349, 1390, 1389, 1388
  106, 1305, 1301, 1391, 1392
  107, 1393, 1308, 1392, 1301
  108, 1301, 1393, 1308, 1303
  109, 1308, 1394, 1395, 1393
  110, 1394, 1396, 1392, 1308
  111, 1308, 1397, 1395, 1398
  112, 1308, 1396, 1392, 1398
  113, 1399, 1400, 1401, 1402
  114, 1403, 1404, 1202,  209
  115, 1399, 1401, 1400, 1405
  116, 1399, 1406, 1401, 1405
  117, 1399, 1407, 1401, 1406
  118, 1399, 1408, 1409, 1410
  119, 1235, 1311,  433, 1314
  120, 1311, 1310,  433,  432
  121, 1235, 1311, 1318, 1313
  122, 1311, 1318, 1411, 1412
  123, 1413, 1414, 1415, 1416
  124, 1413, 1415,  427,  428
  125, 1413, 1417, 1418, 1419
  126, 1420, 1413, 1418, 1421
  127, 1413, 1420, 1415, 1422
  128, 1418, 1423, 1424, 1413
  129, 1413, 1418, 1423, 1419
  130, 1413, 1422,  428, 1423
  131, 1425, 1426, 1427, 1428
  132, 1428, 1429, 1430, 1431
  133, 1428, 1431, 1430, 1426
  134, 1428, 1432, 1433, 1434
  135, 1428, 1435, 1436, 1437
  136, 1428, 1429, 1436, 1430
  137, 1437, 1438, 1436, 1428
  138, 1428, 1436, 1435, 1439
  139, 1440, 1441, 1442, 1443
  140, 1440, 1442, 1444, 1445
  141, 1446, 1442, 1443, 1447
  142, 1442, 1443, 1447, 1440
  143, 1440, 1448, 1449, 1447
  144, 1440, 1450, 1449, 1448
  145, 1440, 1451, 1442, 1445
  146, 1452, 1453, 1408, 1454
  147, 1452, 1455, 1454, 1408
  148, 1452, 1410, 1456, 1408
  149, 1452, 1410, 1457, 1458
  150, 1452, 1271, 1454, 1455
  151, 1452, 1458, 1459, 1456
  152, 1452, 1271, 1460, 1270
  153, 1456, 1452, 1271, 1460
  154, 1452, 1459, 1461, 1460
  155, 1462, 1463,  644, 1464
  156, 1462, 1465, 1466, 1467
  157,  605,  644, 1465, 1468
  158, 1462, 1469, 1470, 1471
  159, 1468, 1463,  644, 1462
  160, 1462, 1472, 1466, 1465
  161, 1462, 1470, 1463, 1471
  162, 1420, 1473, 1474, 1475
  163, 1421, 1476, 1477, 1478
  164, 1420, 1478, 1479, 1474
  165, 1420, 1473, 1480, 1474
  166, 1420, 1415, 1473, 1416
  167, 1420, 1415, 1480, 1473
  168, 1481, 1482, 1483, 1372
  169, 1481, 1482, 1484, 1485
  170, 1481, 1486, 1487, 1488
  171, 1481, 1489, 1490, 1491
  172, 1481, 1482, 1489, 1484
  173, 1492, 1493, 1494, 1495
  174, 1492, 1496, 1497, 1498
  175, 1492, 1499, 1500, 1501
  176, 1500, 1493, 1502, 1499
  177, 1493, 1492, 1499, 1500
  178, 1492, 1499, 1496, 1503
  179, 1504, 1306, 1331,  276
  180, 1505, 1506, 1507, 1508
  181, 1505, 1509, 1510, 1511
  182, 1505, 1512, 1513, 1514
  183, 1505, 1506, 1508, 1515
  184, 1505, 1515, 1516, 1517
  185, 1518, 1519, 1520, 1521
  186, 1518, 1522, 1519, 1523
  187, 1518, 1524, 1525, 1506
  188, 1500, 1502, 1526, 1501
  189, 1508, 1524, 1523, 1506
  190, 1518, 1519, 1527, 1523
  191, 1528, 1529, 1530, 1531
  192, 1532, 1529, 1533, 1534
  193, 1529, 1535, 1531, 1320
  194, 1500, 1536, 1537, 1538
  195, 1532, 1539, 1540, 1529
  196, 1529, 1540, 1531, 1539
  197, 1529, 1540, 1532, 1533
  198, 1541, 1542, 1543, 1503
  199, 1529, 1533, 1534, 1544
  200, 1525, 1545, 1546, 1547
  201, 1505, 1525, 1507, 1506
  202, 1518, 1545, 1525, 1524
  203, 1524, 1525, 1507, 1548
  204, 1549, 1545, 1548, 1547
  205, 1545, 1548, 1547, 1525
  206, 1505, 1507, 1525, 1550
  207, 1377,  121, 1197,  122
  208, 1496, 1551, 1503, 1499
  209, 1552,  566, 1553, 1465
  210, 1548, 1550, 1547, 1525
  211, 1554, 1555, 1556, 1557
  212, 1556, 1557, 1558, 1554
  213, 1555, 1559, 1554, 1556
  214, 1555, 1560, 1561, 1474
  215, 1555, 1561, 1562, 1563
  216, 1555, 1564, 1557, 1474
  217, 1565, 1398, 1566, 1567
  218, 1397, 1395, 1398, 1566
  219, 1566, 1395, 1568, 1397
  220, 1542, 1566, 1395, 1568
  221,  409, 1569, 1570, 1568
  222, 1569, 1570, 1568, 1397
  223, 1397, 1571, 1566, 1567
  224, 1397, 1572, 1570, 1571
  225, 1397, 1567, 1572, 1571
  226, 1573, 1414, 1574, 1575
  227, 1414, 1576, 1577, 1578
  228, 1578, 1256, 1414, 1576
  229, 1413, 1414, 1579, 1578
  230, 1256, 1578,  427,  426
  231, 1414, 1415, 1416, 1257
  232, 1473, 1416, 1257, 1580
  233, 1413, 1581, 1423,  428
  234, 1414, 1573, 1582, 1575
  235, 1414, 1416, 1582, 1580
  236, 1583, 1584, 1585, 1586
  237, 1424,  390,  430,  429
  238, 1321,  711,  750,  204
  239, 1584, 1282, 1587, 1283
  240, 1584, 1588, 1287, 1589
  241, 1584, 1590, 1591, 1588
  242, 1415, 1592,  466, 1593
  243, 1584, 1587, 1585, 1237
  244, 1584, 1588, 1589, 1237
  245, 1594, 1471, 1464, 1463
  246, 1594, 1595, 1463, 1464
  247, 1594,  777, 1596, 1597
  248, 1598, 1464, 1599, 1600
  249, 1418, 1601, 1602, 1603
  250, 1594, 1471, 1597, 1596
  251, 1594, 1596,  777, 1599
  252, 1600, 1471, 1596, 1337
  253, 1419, 1424, 1604, 1605
  254, 1594, 1338, 1599, 1600
  255, 1594, 1596, 1338, 1600
  256, 1284, 1322, 1324, 1606
  257, 1322, 1607, 1324, 1608
  258, 1322, 1609, 1607, 1608
  259, 1323, 1322, 1610, 1607
  260, 1607, 1323, 1611, 1610
  261, 1284, 1323, 1322, 1327
  262, 1322, 1610, 1250, 1327
  263, 1322, 1607, 1609, 1612
  264, 1420, 1421, 1418, 1613
  265, 1610, 1250, 1612, 1322
  266, 1512, 1345, 1513, 1614
  267, 1505, 1513, 1516, 1515
  268, 1512, 1513, 1514, 1615
  269, 1573, 1257, 1414, 1580
  270, 1616, 1614, 1617, 1512
  271, 1512, 1509, 1618, 1616
  272, 1512, 1513, 1615, 1614
  273, 1619, 1620, 1621, 1622
  274, 1623, 1624, 1625, 1626
  275, 1623, 1627, 1624, 1626
  276, 1623, 1626, 1491, 1488
  277, 1623, 1628, 1629, 1491
  278, 1623, 1624, 1627, 1630
  279, 1631, 1262, 1624, 1623
  280, 1623, 1262, 1624, 1630
  281,  541,  542, 1374, 1632
  282, 1633,  581, 1634,  620
  283, 1633,  580, 1632,  541
  284, 1632,  542, 1374, 1635
  285, 1633, 1634, 1208, 1205
  286, 1633, 1635, 1208, 1634
  287, 1636, 1616,  940, 1615
  288, 1258, 1360, 1357, 1358
  289, 1258, 1358, 1637, 1366
  290, 1637, 1258, 1357, 1358
  291, 1258, 1259,  425, 1576
  292, 1258, 1259, 1366,  425
  293, 1638, 1639, 1640, 1641
  294, 1638, 1406, 1642, 1643
  295, 1638, 1639, 1641,  412
  296, 1638, 1401, 1644, 1406
  297, 1638, 1645, 1642,  413
  298, 1638, 1645,  413,  412
  299, 1301, 1639, 1309, 1646
  300, 1301, 1639, 1647, 1309
  301, 1638, 1648, 1639, 1649
  302,  411, 1639, 1301, 1302
  303, 1639,  412, 1302,  411
  304, 1638, 1645,  412, 1641
  305, 1541, 1650, 1542, 1496
  306, 1541, 1542, 1651, 1566
  307, 1541, 1652, 1653, 1566
  308, 1541, 1652, 1654, 1653
  309, 1541, 1542, 1566, 1543
  310, 1655, 1656,  882,  843
  311, 1655, 1363, 1365,  881
  312, 1655, 1657, 1656,  843
  313, 1261, 1265, 1271, 1262
  314, 1261, 1265, 1266, 1658
  315, 1265, 1658, 1271, 1659
  316, 1265, 1271, 1660, 1661
  317, 1265, 1662, 1630, 1663
  318, 1265, 1664, 1262, 1662
  319, 1664, 1665, 1660, 1265
  320, 1265, 1663, 1666, 1662
  321, 1401, 1406, 1407, 1644
  322, 1399, 1453, 1405, 1400
  323, 1638, 1648, 1401, 1405
  324, 1401, 1649, 1667, 1441
  325, 1638, 1644, 1401, 1649
  326, 1509, 1517, 1620, 1668
  327, 1669, 1670, 1240, 1238
  328, 1669, 1671, 1672, 1670
  329, 1669, 1673, 1671, 1674
  330, 1669, 1240, 1675, 1676
  331, 1060, 1677, 1674, 1676
  332, 1677, 1674, 1676, 1669
  333, 1678, 1679, 1680, 1681
  334, 1678, 1680, 1682, 1683
  335, 1678, 1684, 1685, 1686
  336, 1678, 1685, 1681, 1686
  337,  537, 1687,  498, 1688
  338, 1687,  498, 1688, 1689
  339, 1689, 1690, 1691, 1692
  340, 1689,  498, 1690, 1687
  341,  459, 1693,  498, 1694
  342, 1279,  442, 1516, 1695
  343, 1696, 1697, 1698,  799
  344, 1696, 1699,  700, 1698
  345, 1531, 1700, 1701, 1702
  346, 1696, 1698, 1703,  799
  347, 1513, 1516, 1515, 1695
  348, 1704, 1297, 1296, 1298
  349, 1704, 1705, 1298, 1706
  350, 1704,  787, 1707, 1705
  351, 1708, 1500, 1526, 1536
  352, 1470, 1709, 1526, 1708
  353, 1469, 1470, 1709, 1526
  354, 1708, 1500, 1536, 1537
  355, 1708, 1502, 1500, 1493
  356, 1708, 1526, 1500, 1502
  357, 1708, 1470, 1709, 1426
  358, 1473, 1710, 1561, 1474
  359, 1416, 1257, 1580, 1414
  360, 1581,  388,  389,  428
  361, 1711, 1712, 1713, 1042
  362, 1714, 1415, 1592, 1257
  363, 1473, 1561, 1480, 1474
  364, 1313, 1236, 1312,  349
  365, 1235, 1311, 1310,  433
  366, 1235, 1313, 1318, 1232
  367, 1235, 1313, 1232, 1236
  368, 1313, 1715, 1232, 1716
  369, 1313,  349, 1717, 1716
  370, 1611, 1610, 1107, 1718
  371, 1719, 1720, 1721, 1722
  372, 1719, 1723, 1724, 1316
  373, 1719, 1607, 1723, 1722
  374, 1719, 1611, 1721, 1718
  375, 1245, 1246, 1254, 1247
  376, 1246, 1612, 1725, 1726
  377, 1246, 1250, 1727, 1249
  378, 1728, 1729, 1023, 1062
  379, 1246, 1726, 1730, 1612
  380, 1245, 1249, 1246, 1731
  381, 1691, 1485, 1732, 1733
  382, 1691, 1693, 1630, 1694
  383, 1691, 1692, 1733, 1734
  384, 1735,   50,   49,  852
  385, 1691, 1732, 1630, 1736
  386, 1708, 1430, 1431, 1426
  387, 1500, 1536, 1501, 1526
  388, 1708, 1430, 1737, 1431
  389, 1708, 1493, 1737, 1430
  390, 1738, 1251, 1325, 1739
  391, 1251, 1325, 1739, 1285
  392, 1284, 1353, 1285, 1260
  393, 1285, 1740, 1251, 1260
  394, 1284, 1327, 1251, 1325
  395, 1285, 1741, 1742, 1743
  396, 1285, 1741, 1351, 1742
  397, 1284, 1322, 1606, 1250
  398, 1251, 1739, 1252, 1744
  399, 1245, 1248, 1745, 1731
  400, 1251, 1252, 1253, 1744
  401, 1245, 1252, 1745, 1248
  402, 1746,  892, 1747, 1748
  403, 1245, 1253, 1252, 1248
  404, 1220, 1749, 1219, 1217
  405, 1220, 1749, 1217, 1750
  406, 1121, 1219, 1218, 1751
  407, 1220, 1752, 1753, 1749
  408, 1754, 1755, 1756, 1757
  409, 1220, 1758, 1752, 1759
  410, 1203, 1760, 1215, 1210
  411, 1211, 1761, 1762, 1214
  412, 1763, 1764, 1765, 1766
  413, 1221, 1226, 1224, 1229
  414, 1222, 1767, 1763, 1768
  415, 1222, 1769, 1770, 1767
  416, 1221, 1222, 1771, 1768
  417, 1772,  686,  148,  685
  418, 1221, 1773, 1774, 1771
  419, 1775,  158,  159,  675
  420, 1222, 1771, 1763, 1770
  421, 1671, 1677, 1059, 1098
  422, 1671, 1776, 1777, 1099
  423, 1669, 1240, 1670, 1672
  424, 1671, 1677, 1674, 1060
  425, 1671, 1677, 1098, 1778
  426, 1669, 1677, 1671, 1670
  427, 1779, 1780,  859, 1781
  428, 1782, 1783, 1784, 1726
  429, 1782, 1725, 1612, 1726
  430, 1782, 1723, 1724, 1783
  431, 1782, 1316, 1723, 1785
  432,  755, 1785, 1317, 1786
  433, 1787, 1788,  575, 1789
  434, 1782, 1726, 1790, 1786
  435, 1790, 1782, 1784, 1726
  436, 1791, 1792, 1252, 1390
  437, 1791, 1792, 1793, 1794
  438, 1791, 1252, 1739, 1744
  439, 1791, 1318, 1412, 1795
  440, 1791, 1252, 1796, 1739
  441, 1791, 1793, 1797, 1794
  442, 1798, 1799, 1800, 1801
  443, 1798, 1802, 1800, 1803
  444, 1804, 1805, 1806, 1807
  445, 1808, 1809, 1803, 1684
  446, 1798, 1800, 1799, 1803
  447, 1810, 1752, 1749, 1811
  448, 1220, 1810, 1752, 1749
  449, 1220, 1810, 1749, 1812
  450, 1810, 1749, 1813, 1811
  451, 1761, 1814, 1815, 1816
  452, 1815, 1761, 1817, 1814
  453, 1761, 1818, 1563, 1562
  454, 1761, 1815, 1819, 1816
  455, 1562, 1761, 1817, 1815
  456, 1240, 1676, 1239, 1675
  457, 1672,  232, 1673, 1240
  458, 1240, 1672, 1295, 1820
  459, 1669, 1240, 1672, 1673
  460, 1240, 1238, 1670, 1821
  461, 1440, 1444, 1442, 1649
  462, 1449, 1822, 1409, 1823
  463, 1449, 1822, 1823, 1824
  464, 1700, 1825, 1200, 1826
  465, 1449, 1447, 1827, 1803
  466, 1449, 1409, 1828, 1823
  467, 1791, 1793, 1318, 1797
  468, 1791, 1252, 1792, 1796
  469, 1251, 1738, 1252, 1739
  470, 1829,  908, 1830, 1794
  471, 1792, 1248, 1745, 1252
  472, 1791, 1831, 1252, 1744
  473, 1245, 1251, 1249, 1738
  474, 1285, 1741, 1743, 1744
  475, 1449, 1803, 1827, 1799
  476, 1798, 1800, 1832, 1833
  477, 1440, 1449, 1443, 1447
  478, 1798, 1832, 1800, 1802
  479, 1800, 1834, 1835, 1833
  480, 1800, 1836, 1803, 1802
  481, 1800, 1835, 1837, 1833
  482, 1449, 1836, 1800, 1823
  483, 1590, 1591,  223,  222
  484, 1590, 1591,  222, 1838
  485, 1590,  225, 1839,  222
  486, 1590, 1584, 1586, 1239
  487, 1590, 1839,  225, 1239
  488, 1794, 1829,  947, 1792
  489,  995, 1840, 1034, 1841
  490, 1842, 1033, 1840, 1034
  491, 1842, 1843, 1216, 1844
  492, 1842, 1844, 1034, 1841
  493, 1845, 1212, 1034, 1842
  494, 1846, 1023, 1847,  984
  495, 1848, 1849, 1566, 1567
  496, 1848,  446, 1651, 1850
  497, 1848, 1849, 1567, 1851
  498, 1848, 1571, 1651,  407
  499, 1852, 1849, 1853, 1851
  500, 1849, 1853, 1851, 1848
  501, 1305, 1307, 1854, 1504
  502, 1855, 1504,  277, 1856
  503, 1305, 1391, 1309, 1857
  504, 1301, 1305, 1391, 1309
  505, 1301, 1308, 1307, 1303
  506, 1305, 1854, 1858, 1855
  507, 1305, 1392, 1857, 1858
  508, 1420, 1613, 1418, 1603
  509, 1422, 1420, 1415, 1480
  510, 1473, 1416, 1415, 1257
  511, 1256, 1415, 1578, 1414
  512, 1577, 1258, 1414, 1574
  513, 1414, 1257, 1256, 1415
  514, 1413, 1416, 1418, 1579
  515, 1332, 1685, 1859, 1684
  516, 1332, 1860, 1467, 1600
  517, 1861, 1793, 1794, 1862
  518, 1863, 1389, 1385, 1384
  519, 1330, 1332, 1335, 1338
  520, 1338,  736, 1334,  737
  521, 1338, 1334,  736, 1335
  522, 1864,  888,  928,  927
  523, 1338, 1865, 1335,  775
  524, 1594, 1599, 1338, 1596
  525, 1866, 1867, 1868, 1869
  526, 1583, 1586, 1870,  982
  527, 1338,  737, 1596,  776
  528, 1330, 1332, 1338, 1600
  529, 1330, 1334, 1338, 1335
  530, 1330, 1332, 1333, 1335
  531, 1330, 1329, 1328, 1860
  532, 1328, 1686, 1125, 1333
  533, 1871, 1829, 1389, 1792
  534, 1328, 1872, 1087, 1086
  535, 1332, 1685, 1686, 1333
  536, 1332, 1598, 1600, 1467
  537, 1328, 1873, 1087, 1872
  538, 1328, 1874, 1860, 1873
  539, 1763, 1875, 1876, 1788
  540, 1763, 1766, 1804, 1764
  541, 1763, 1764, 1877, 1878
  542, 1879,  984, 1880,  945
  543, 1881, 1065, 1882, 1883
  544, 1377, 1197, 1884,  122
  545, 1534, 1885, 1886, 1881
  546, 1879, 1846, 1887, 1847
  547, 1848,  446,  406,  407
  548, 1861, 1242, 1888, 1241
  549, 1881, 1726, 1889, 1730
  550, 1708, 1430, 1709, 1502
  551, 1470, 1471, 1890, 1463
  552, 1462, 1463, 1470, 1468
  553, 1462, 1891, 1466, 1469
  554, 1708, 1892, 1470, 1426
  555, 1470, 1426, 1890, 1893
  556, 1685, 1894, 1859, 1895
  557, 1896,  261,  258,  262
  558, 1332, 1685, 1894, 1859
  559, 1685, 1686, 1333, 1681
  560, 1456,  456,  416,  417
  561, 1897, 1681, 1898, 1685
  562, 1861, 1794, 1829, 1830
  563, 1810, 1899, 1900, 1901
  564, 1900, 1752, 1902, 1903
  565, 1900, 1904, 1682, 1905
  566, 1798, 1903, 1900, 1906
  567, 1798, 1905, 1900, 1903
  568, 1907, 1908, 1154, 1115
  569, 1909, 1387, 1910, 1180
  570, 1225, 1911, 1908, 1912
  571, 1907, 1912, 1913, 1908
  572, 1907, 1908, 1115, 1911
  573, 1914, 1915,  659, 1209
  574, 1346, 1348, 1916, 1352
  575, 1348, 1323, 1347, 1611
  576, 1346, 1917, 1348, 1347
  577, 1815, 1348, 1918, 1919
  578, 1554, 1559, 1815, 1917
  579, 1348, 1919, 1916, 1920
  580, 1471, 1891, 1337, 1600
  581, 1470, 1921, 1469, 1462
  582, 1470, 1468, 1463, 1892
  583, 1922, 1891, 1337, 1471
  584, 1471, 1890, 1463, 1923
  585, 1470, 1463, 1890, 1892
  586, 1924, 1925, 1926,  803
  587, 1927, 1928, 1919, 1929
  588, 1928, 1930, 1931, 1109
  589, 1928, 1930, 1148, 1932
  590, 1933, 1447, 1934, 1803
  591, 1540, 1101, 1403, 1728
  592, 1933, 1874, 1808, 1803
  593, 1933, 1827, 1447, 1803
  594, 1704, 1935, 1936, 1937
  595, 1936, 1938, 1937, 1521
  596, 1936, 1939, 1940, 1941
  597, 1936, 1938, 1939, 1942
  598, 1723, 1722, 1943, 1944
  599, 1806,  653,  652,  613
  600, 1610, 1719, 1718, 1611
  601, 1722, 1348, 1721, 1719
  602, 1945,  965, 1004,  964
  603, 1783, 1724, 1610, 1723
  604, 1719, 1723, 1720, 1722
  605, 1723, 1720, 1722, 1944
  606,  756, 1944, 1316, 1785
  607, 1944, 1316, 1785, 1723
  608, 1891, 1329, 1127, 1337
  609, 1891, 1600, 1466, 1946
  610, 1891, 1946, 1089, 1088
  611, 1922, 1891, 1128, 1337
  612, 1947,  867, 1948, 1949
  613, 1128, 1337, 1167, 1922
  614, 1276,  361,  401,  400
  615, 1922, 1469, 1128, 1891
  616, 1206, 1209, 1914, 1950
  617, 1891, 1089, 1469, 1128
  618, 1951, 1952, 1953, 1954
  619, 1951, 1208, 1844, 1207
  620, 1915, 1955,  698,  699
  621, 1956, 1633, 1208, 1205
  622, 1951, 1370, 1632, 1957
  623, 1951, 1370, 1957, 1953
  624, 1951, 1958, 1370, 1953
  625, 1378, 1208, 1959, 1951
  626, 1907, 1960, 1206, 1204
  627, 1914, 1961,  697,  698
  628, 1399, 1410, 1409, 1407
  629, 1453, 1962, 1963, 1964
  630, 1452, 1408, 1453, 1457
  631, 1453, 1405, 1963, 1406
  632, 1452, 1453, 1962, 1965
  633, 1453, 1963, 1962, 1965
  634, 1554, 1557, 1351, 1966
  635, 1555, 1557, 1967, 1474
  636, 1555, 1968, 1815, 1562
  637, 1554, 1916, 1815, 1969
  638, 1815, 1917, 1348, 1554
  639, 1555, 1815, 1559, 1562
  640, 1386,  476, 1970,  515
  641, 1861, 1888, 1386, 1241
  642, 1386, 1970, 1971, 1387
  643, 1386, 1970,  476, 1972
  644, 1349,  514, 1386, 1387
  645,  475, 1241, 1349, 1386
  646, 1518, 1519, 1521, 1973
  647, 1974, 1505, 1517, 1525
  648, 1506, 1515, 1517, 1975
  649, 1386,  515,  475,  476
  650, 1506, 1515, 1975, 1523
  651, 1525, 1505, 1517, 1506
  652, 1505, 1515, 1508, 1514
  653, 1732,  963, 1733,  962
  654, 1732, 1630, 1976, 1488
  655, 1691, 1732, 1488, 1630
  656, 1732, 1977,  963,  964
  657, 1732, 1630, 1736, 1663
  658, 1732, 1976, 1630, 1266
  659, 1955,  801, 1961,  136
  660, 1978, 1198, 1195, 1199
  661, 1521, 1518, 1979, 1545
  662, 1980, 1201, 1198, 1202
  663, 1519, 1937, 1520, 1521
  664, 1518, 1506, 1981, 1522
  665, 1382,  296,   53,  299
  666, 1519, 1523, 1522, 1982
  667, 1983, 1937, 1520, 1519
  668, 1961,  801,  137,  136
  669, 1518, 1520, 1519, 1522
  670, 1375, 1867, 1984, 1868
  671, 1924, 1961,  137,  697
  672, 1868, 1539, 1985, 1528
  673, 1868, 1986, 1866, 1869
  674, 1868, 1384, 1984, 1383
  675, 1868, 1987, 1383, 1985
  676, 1868, 1988, 1375, 1985
  677, 1313, 1411, 1989, 1717
  678, 1272, 1339, 1280, 1342
  679, 1273, 1990, 1342,  253
  680, 1273, 1991, 1275, 1278
  681, 1272, 1273, 1342, 1274
  682, 1272, 1275, 1277, 1278
  683, 1273, 1990,  253, 1992
  684, 1356,  319, 1357,  318
  685, 1355, 1362, 1356, 1358
  686, 1356, 1993, 1362, 1994
  687, 1355, 1357, 1356, 1995
  688, 1339, 1344, 1341, 1340
  689, 1273, 1996, 1278, 1636
  690, 1273, 1636, 1997, 1996
  691, 1340, 1997, 1636, 1998
  692, 1339, 1614, 1340, 1278
  693, 1617, 1339, 1343, 1345
  694, 1342, 1340, 1999, 1990
  695, 1990, 1342,  256, 1999
  696, 1368, 2000, 2001, 1574
  697, 1368, 1958, 1370, 1378
  698, 2002, 1358, 1364, 1359
  699, 1368, 2002, 1574, 1366
  700, 2002, 1489, 1363, 1358
  701, 2002, 1482, 1363, 1489
  702, 2002, 1482, 1372, 2003
  703, 2004, 1852,  265, 2005
  704, 2005, 1852,  265,  268
  705, 1849, 2006, 1567, 2007
  706, 1849, 1566, 1567, 1653
  707, 1849, 1853, 2008, 2004
  708, 1849, 2009, 1567, 1851
  709, 1849, 2008, 1780, 2005
  710, 1849,  268, 2005, 2007
  711, 1849, 2007, 1567, 2009
  712, 1793, 1318, 1797, 2010
  713, 1793, 1242, 1234, 1232
  714, 1791, 1318, 1234, 1314
  715, 1862, 1793, 2010, 1232
  716, 1418, 1424, 2011, 1421
  717, 1424, 1413, 1421, 1418
  718, 2012,  726,  725,  177
  719, 2013,   97,   98,  297
  720, 1413, 1418, 1417, 1579
  721, 2014, 1417,  331, 1419
  722, 1258, 1360, 2015, 1357
  723, 1258, 1576, 1577, 1414
  724, 1360, 1574, 1577, 1575
  725, 1717, 1715, 1716, 2016
  726, 1577, 1258, 2015, 1576
  727, 1357, 1360, 2017, 1995
  728, 2015, 1360, 2017, 1357
  729, 1478, 1564, 1557, 2018
  730, 1420, 1479, 1478, 1421
  731, 1478, 2019, 1741, 2020
  732, 1478, 1477, 2020, 2021
  733, 1792, 1388, 1829, 1389
  734, 2022, 2023, 1421, 2020
  735, 1478, 2020, 2024, 2021
  736, 1390, 1383, 1384, 2025
  737,  552, 1383, 1988,  553
  738, 1349,  474, 1241,  475
  739, 1349, 1390, 1388, 1379
  740, 1349, 2026,  513,  552
  741,  552, 1383, 1349, 2026
  742, 1384, 1390, 1349, 1383
  743, 1648, 2027, 2028,  286
  744, 1648, 1309, 2029, 2030
  745, 1639, 1309, 1648, 2030
  746, 1648, 1309, 1646, 1748
  747, 1638, 1401, 1648, 1649
  748, 1648, 2027,  286, 1640
  749, 1308, 1305, 1307, 1854
  750, 1572, 1567, 2031,  271
  751, 1572, 1504, 1369,  273
  752, 1572, 1571, 1567, 2009
  753, 1572, 1504, 1570, 1369
  754, 1652, 1850, 1622, 2008
  755, 1232,  352, 1716, 2032
  756,  405, 2033, 2034, 2035
  757, 2035, 1850, 1622,  445
  758, 2008, 1848, 1853, 1849
  759, 1848, 2035,  406, 1850
  760, 1853, 2034, 2033, 2035
  761,  907, 1829,  908, 1830
  762, 2035, 1853, 2034, 2008
  763, 1940, 2036, 2037, 2038
  764, 1940, 2039, 2036, 2040
  765, 2041, 2042, 2043, 1437
  766, 2041, 1545, 1546, 2044
  767, 2041, 1979, 2045, 1549
  768, 2041, 1521, 2045, 1979
  769, 2041, 2046, 2042, 2047
  770, 2041, 1940, 2048, 2046
  771, 2041, 1521, 1545, 2049
  772, 2041, 1545, 2044, 2049
  773, 2050, 1382, 2051, 1381
  774, 2050, 1270, 1454, 2051
  775, 2052, 1729, 1196, 1193
  776, 1381, 1454, 2051, 2050
  777,  889, 1381,  888, 1864
  778, 1381,  888, 1864, 2050
  779, 2050, 1454, 1864, 1381
  780, 1238, 1585, 2053, 2054
  781, 1669, 1671, 1677, 1674
  782, 1238, 2055, 2056, 2057
  783, 1238, 2053, 2056, 1523
  784, 1519, 1982, 1238, 1523
  785, 1835, 2058, 1833, 2059
  786, 1835, 1833, 2058, 1837
  787, 1800, 1837, 1835, 1823
  788, 2060, 2061, 2062, 1409
  789, 1835, 2063, 1409, 2060
  790, 1409, 1667, 1407, 1822
  791, 1868, 1375, 1867, 2064
  792, 1867, 2064, 1376, 1194
  793, 1867, 1978, 2052, 1866
  794, 1867, 2065, 1191, 1376
  795, 1867, 1194, 1376, 1191
  796, 1623, 1626, 1488, 1627
  797, 1624, 1662, 1262, 1664
  798, 1624,  307, 1631, 1625
  799, 1624, 1627, 2066, 2067
  800, 1648, 1405, 1747, 1746
  801, 1405, 1964, 1963, 2028
  802, 1405, 1406, 1643, 1963
  803, 1399, 1453, 1457, 1406
  804, 1405, 1746, 2068, 1747
  805, 1399, 1409, 2069, 1402
  806, 1708, 1737, 1500, 1537
  807, 1492, 1494, 1493, 2070
  808, 1493, 2071, 1494, 2072
  809, 1493, 2070, 2071, 2073
  810, 1493, 2073, 2071, 1436
  811, 2074,  339, 2075, 2076
  812, 2074, 2077, 2078, 1605
  813, 2074, 2079, 2077, 1605
  814, 2074, 2080, 2075, 2081
  815, 2074, 2082, 2081, 2075
  816, 2074, 2082,  340,  341
  817, 2074,  340, 2075,  339
  818, 2041, 2083, 2042, 1437
  819, 2042, 1437, 2083, 1434
  820, 2042, 2047, 2084, 2085
  821, 2042, 2086, 2047, 2085
  822, 2042, 1437, 1434, 1432
  823, 2042, 1437, 1432, 1438
  824, 2043, 2041, 2046, 2042
  825, 1867, 1191, 2065, 1192
  826,  782, 2047, 2084, 2087
  827, 1319, 1102, 1141, 1101
  828, 2042, 1432, 2084, 2087
  829, 1425, 1439, 1131, 2088
  830, 1376,  120, 1194,  121
  831, 1270, 1263, 2089,  298
  832, 2088, 1709, 1091, 1130
  833, 2090,  668,  708,  707
  834, 1426, 1425, 2091, 2088
  835, 1427, 1426, 1425, 2091
  836, 1428, 2088, 1425, 1426
  837, 1439, 1709, 1091, 2088
  838, 2088, 1709, 1130, 2091
  839, 1454, 1381, 2092, 1864
  840, 1893, 2091, 1709, 1426
  841, 2093, 1293, 1289, 2094
  842, 2093, 2095,  905, 2096
  843, 2093, 1289, 1293, 2095
  844, 1692, 2097, 2098, 1754
  845, 1692, 1754, 2098, 1755
  846, 1692, 2099, 1690, 1487
  847, 1691, 1690, 1694, 1487
  848, 1692, 1754, 1755, 1734
  849, 1542, 1396, 1395, 1398
  850, 1542, 1496, 2100, 1551
  851, 1541, 1651, 1542, 1650
  852, 1542, 1568, 1395, 2101
  853, 1542, 2101, 1395, 2100
  854, 1240,  232, 2102, 1295
  855, 1672, 2103, 1297, 1295
  856, 1382,   52,  849,   53
  857, 1670, 1297, 1777, 1671
  858, 1461,  294,  295,  298
  859, 1672, 1297, 1776, 1300
  860, 1671, 1672, 1670, 1297
  861, 1672,  235, 1297, 1300
  862, 1240, 1295, 1672,  232
  863, 1672, 1297,  235, 1295
  864, 1270, 1271, 1269, 1454
  865, 1270, 2104, 1263, 2051
  866, 1270, 1271, 1665, 1262
  867, 1261, 1271, 1270, 1262
  868, 1270, 2051,  298, 1461
  869, 1270,  298, 2051, 1263
  870, 1867, 1195, 1978, 2064
  871, 1978, 1866, 1540, 1728
  872, 1978, 1540, 1980, 1403
  873, 1978, 2052, 2105, 1196
  874, 1978, 2052, 1196, 1195
  875, 2106, 1550, 2107, 1511
  876, 2106, 1509, 1619, 2108
  877, 2106, 1498, 2109, 1652
  878, 2106, 1498, 2110, 2109
  879, 1763, 1875, 2111, 1768
  880, 1770, 2112, 1877, 2113
  881, 1222, 1223, 2114, 1769
  882, 1770, 1771, 2115, 1773
  883, 1773, 1770, 1222, 2116
  884, 1222, 1770, 1769, 2116
  885, 1771, 1222, 1221, 1773
  886, 1770, 1877, 1767, 2113
  887, 1513, 2117, 2056, 1515
  888, 1513, 2117, 1515, 1514
  889, 1513, 1279, 2118, 1278
  890, 1513, 2056, 1695, 1515
  891, 1513, 2118, 2119, 1278
  892, 1285, 1742, 1351, 1350
  893, 1557, 1741, 1742, 1351
  894, 1741, 1557, 1966, 1351
  895, 1741, 2120, 1351, 1966
  896, 1318, 1412, 1795, 2121
  897, 1311, 2122, 2081, 2123
  898, 1235, 1311, 1313, 1312
  899, 1311, 1313, 1411, 1318
  900, 1313, 1989, 1411, 2121
  901, 1453, 1962, 2092, 1454
  902, 1233, 1242, 1236, 1232
  903, 1313, 1318, 1232, 2010
  904, 1318, 1412, 2121, 1411
  905, 1763, 1804, 1877, 1764
  906, 2124, 1262,  301, 2089
  907, 1804, 1219, 1805, 1764
  908, 1804, 1751, 1219, 1766
  909, 1804, 1751, 2125, 1753
  910, 1804, 2125, 1787, 1753
  911, 2126, 2127, 2128, 2129
  912, 2130, 2131,  758, 2132
  913, 2126, 1930, 2130, 2131
  914, 2126, 2133, 2128, 2132
  915, 1768, 1221, 2134, 1771
  916, 1221, 1226, 1774, 1773
  917, 1222, 1770, 1763, 1767
  918, 1771, 1878, 2115, 2135
  919, 1763, 2111, 1771, 1768
  920, 2136, 2045, 1135, 2040
  921, 2136, 1935, 1973, 1937
  922, 1936, 1935, 2136, 1937
  923, 1097, 1979, 1136, 1973
  924, 1979, 1136, 1973, 2136
  925, 1940, 2136, 1936, 2039
  926, 2136, 2045, 1521, 1979
  927, 1208, 1843, 1374, 1378
  928, 1633, 1205, 1950, 1634
  929, 1633, 1634, 1950,  620
  930, 1203, 1760, 1206, 1215
  931, 1208, 1843, 1635, 1374
  932, 1203, 1208, 1634, 1205
  933, 1978, 1866, 1728, 2052
  934, 1866, 2064, 1540, 1531
  935, 1531, 1866, 1868, 1539
  936, 1866, 2052, 1986, 1728
  937, 1867, 1869, 1866, 2052
  938, 1678, 1904, 1679, 1684
  939, 1900, 1904, 1906, 2137
  940, 1798, 1906, 1904, 1809
  941, 1798, 1801, 1800, 1833
  942, 1220, 1219, 1753, 1751
  943, 1810, 1752, 1811, 1901
  944, 2138, 1903, 2139, 2140
  945, 1903, 1752, 2141, 2140
  946, 2141, 2140, 2139, 1903
  947, 1900, 2140, 1752, 1903
  948, 1208, 1956, 1951, 1632
  949, 1746, 1400,  891,  930
  950, 1205, 1206, 1950, 1209
  951, 2142, 1273, 1274, 1992
  952, 1275, 1293, 2142, 2143
  953, 1281, 1275, 2143, 1293
  954, 1281, 1287, 1288, 1283
  955, 1282, 1281, 1290, 1293
  956, 1275, 1991, 1282, 1278
  957, 1272, 1339, 1342, 1340
  958, 2144, 1276, 1272, 1274
  959, 1800, 1833, 1801, 1834
  960, 1833, 2059, 2145, 2146
  961, 1835, 2059, 2146, 2147
  962, 1833, 2059, 1903, 2145
  963, 1833, 2059, 2138, 1903
  964, 1240, 2102, 2148, 1820
  965, 1238, 2056, 2053, 1585
  966, 1513, 1695, 2056, 2118
  967, 2056, 1585, 1870, 2118
  968, 2056, 2149, 1585, 2118
  969, 1842, 1841, 1818, 1843
  970, 1818, 1561, 1563, 1562
  971, 1818, 2150, 1561, 1562
  972, 1761, 1818, 1840, 1563
  973, 1761, 1216, 2151, 1214
  974, 1332, 1874, 2152, 1860
  975, 1859, 1874, 1332, 1684
  976, 1933, 1874, 2153, 2154
  977, 1933, 2155, 2156, 1447
  978, 2157, 1684, 1872, 1802
  979, 1684, 1872, 1802, 1874
  980, 1874, 1802, 1684, 1803
  981, 1332, 1860, 1328, 1874
  982, 1874, 1860, 1873, 2153
  983, 1874, 2153, 1873, 2158
  984, 1933, 2153, 1874, 2158
  985, 1951, 1957, 1632, 1956
  986, 1370, 1378, 1632, 1374
  987, 1959, 1378, 1951, 1958
  988, 2050,  888, 1269,  887
  989, 2159, 1373, 1372, 1957
  990, 1370, 1371, 1957, 1953
  991, 1395, 2160, 2100, 2101
  992, 1308, 1395, 1303, 1393
  993, 1395, 2161, 1394, 2100
  994, 2064, 1700, 1884, 1197
  995, 2064, 1377, 1194, 1197
  996, 1376, 1375, 1867, 1984
  997, 1866, 1531, 1540, 1539
  998, 2064, 1702, 1531, 1375
  999, 1978, 1728, 1540, 1403
 1000, 2064, 1377, 1376, 1194
 1001, 1741, 1744, 2162, 1743
 1002, 1744, 1412, 2163, 2164
 1003, 1744, 1412, 2164, 2162
 1004, 1791, 1412, 1318, 1314
 1005, 1791, 2163, 1412, 1314
 1006, 1791, 1797, 1739, 1796
 1007, 1208, 1844, 1216, 1843
 1008, 1216, 2151, 1214, 1635
 1009, 1211, 1762, 1816, 2165
 1010, 1203, 1215, 1211, 1210
 1011, 1216, 1635, 1214, 1634
 1012, 1842, 1844, 1841, 1843
 1013, 1842, 1818, 1841, 1840
 1014, 1704, 2166, 1297, 1937
 1015, 1294, 2103, 1297, 1296
 1016, 1672, 1670, 2167, 1821
 1017,  235,  232, 1673, 1672
 1018, 1672, 2167, 1297, 2103
 1019, 1672, 1297, 2167, 1670
 1020, 1865, 1600, 1599, 1338
 1021, 1860, 1600, 1329, 1946
 1022, 1328, 1860, 1329, 1873
 1023, 1860, 2153, 1466, 1946
 1024, 1904, 1682, 1679, 1899
 1025, 1679, 1682, 1680, 1899
 1026, 1679, 1895, 2168, 2169
 1027, 1685, 1898, 1679, 1681
 1028, 1685, 1895, 1679, 1898
 1029, 1685, 1684, 2168, 1859
 1030, 1227, 1956, 1912, 2170
 1031, 1203, 1209, 1205, 1634
 1032, 1204, 1203, 1760, 1206
 1033, 1206, 1914, 1209, 1915
 1034, 1866, 1539, 1540, 2171
 1035, 2064, 1375, 1377, 1702
 1036, 1868, 1531, 1528, 1375
 1037, 1529, 1320, 1544, 1535
 1038, 1531, 1980, 1540, 1320
 1039, 2064, 1980, 1531, 1700
 1040, 1320, 1700, 1701, 1531
 1041, 1463, 1464,  683,  644
 1042,  682, 2172, 2173, 1463
 1043, 2173, 1463, 1923,  682
 1044, 1923, 1594, 1595, 1463
 1045, 1452, 1459, 1460, 1456
 1046, 1463, 1468,  604, 1892
 1047, 1463, 2172, 2173, 1890
 1048, 2153, 2174, 1472, 1466
 1049, 1410, 1822,  454, 2063
 1050, 1332, 1467, 1860, 2152
 1051, 1407,  454, 1822,  453
 1052, 1685, 1679, 2168, 1684
 1053, 1874, 1860, 2153, 2154
 1054, 2153, 2174, 1466, 1946
 1055, 1826,  789,  203,  750
 1056, 1860, 2175, 2153, 2154
 1057, 1860, 2153, 1946, 1873
 1058, 1804, 1806, 1753, 1787
 1059, 2125, 2141, 2176, 2177
 1060, 2125, 1753, 1751, 2141
 1061, 2125, 2177, 1753, 2141
 1062, 1721, 1930, 2178, 1108
 1063, 1461, 1965,  295,  294
 1064, 1721, 2179, 2178, 1930
 1065, 1721, 1611, 1918, 1069
 1066, 1721, 1611, 1107, 1718
 1067, 1348, 1721, 1918, 2179
 1068, 1883, 1731, 1882, 2180
 1069, 1245, 1248, 1247, 2181
 1070, 1987, 1383, 1985, 2181
 1071, 1868, 1986, 1987, 2171
 1072, 1868, 2064, 1867, 1866
 1073, 1987, 1539, 2171, 1882
 1074, 2130,  719, 1932,  720
 1075, 2126, 2127, 2179, 2182
 1076, 2133,  759, 2132, 2130
 1077, 2183, 2133,  759, 2132
 1078, 2130, 1932,  719, 2131
 1079, 2131, 2126, 2132, 2130
 1080, 1749, 1805, 1753, 1219
 1081, 1220, 1810, 1812, 1759
 1082, 1749, 1805, 1806, 1753
 1083, 1810, 1901, 1811, 1813
 1084, 1749, 1813, 2184, 2185
 1085, 1810, 1899, 2186, 2187
 1086, 1810, 1749, 1812, 2185
 1087, 1270, 1460, 2089, 1665
 1088, 2185, 1750, 2188, 1749
 1089, 2153, 2175, 1466, 1465
 1090, 2153, 1472, 1465, 1466
 1091, 2189, 2155, 1553, 2153
 1092, 1472, 2190, 1552, 2191
 1093, 1462, 1472, 1921, 1466
 1094, 1462, 1536, 1470, 1921
 1095, 1462, 1470, 1536, 1468
 1096, 1987, 2192, 1248, 1731
 1097, 1246, 1987, 2180, 1247
 1098, 1245, 2181, 1247, 1254
 1099, 1245, 1250, 1255, 1254
 1100, 1987, 2025, 1248, 2192
 1101, 1868, 1985, 1383, 1988
 1102, 1607, 1323, 1324, 1352
 1103, 1719, 1348, 1721, 1611
 1104, 1322, 1610, 1607, 1612
 1105, 1348, 2179, 2193, 1722
 1106, 1761, 1845, 1816, 1819
 1107, 1761, 1214, 1817, 1762
 1108, 2194, 1264, 1263, 2195
 1109, 1206, 1204, 1960, 1760
 1110, 1215, 2196, 2197, 1210
 1111, 1211, 1215, 1213, 2197
 1112, 2001, 1592, 1257, 1714
 1113, 2001, 1574, 1259, 1366
 1114, 1592, 2001, 1259, 2198
 1115, 2199,  397, 2200,  398
 1116, 2001, 1257, 1259, 1574
 1117, 2190, 2201, 2161, 2202
 1118, 2190, 2161, 2201, 2203
 1119, 1472, 2191, 1552, 1536
 1120, 2190, 2202, 2161, 2100
 1121, 2190, 2161, 2204, 2100
 1122, 2190, 2191, 2204, 1552
 1123, 1815, 1919, 1929, 1816
 1124, 2050, 1382,  849,  848
 1125, 1203, 1211, 1216, 1212
 1126, 1555, 1969, 1815, 1968
 1127, 2129, 1919, 1814, 1816
 1128, 1919, 1814, 1816, 1815
 1129, 1815, 1816, 1929, 1819
 1130, 1761, 1819, 1815, 1562
 1131, 2097, 2205, 1768, 1231
 1132, 1692, 2098, 2097, 2206
 1133, 2097, 1757, 1754, 1875
 1134, 1345, 1617, 2207, 1343
 1135, 2207, 1621, 2034, 2208
 1136, 2207, 2034, 1344, 2208
 1137, 2207, 1621, 1345,  404
 1138, 1341, 1344, 1343, 1896
 1139, 1344, 1343, 1896, 2207
 1140, 1339, 1340, 1614, 1617
 1141, 1505, 1512, 1509, 1516
 1142, 1826,  202,  203,  789
 1143, 1513, 1614, 1345, 1279
 1144, 1513, 2118, 2117, 2119
 1145, 1512, 1509, 1616, 1510
 1146, 2205, 1954, 2209, 2134
 1147, 2056, 1585, 2057, 1870
 1148, 2056, 2118, 1695, 2149
 1149, 1284, 1285, 1350, 1325
 1150, 1246, 1250, 1612, 1727
 1151, 1245, 1738, 1731, 1745
 1152, 1245, 1251, 1738, 1252
 1153, 1246, 1250, 1254, 1612
 1154, 1571, 1651,  447, 1568
 1155, 1848, 1850,  445,  446
 1156,  369, 1851,  408, 1570
 1157, 1851,  408, 1570, 1571
 1158, 1568, 1570,  408, 1571
 1159,  409, 1568, 1570,  408
 1160, 1848, 1571, 1567, 1566
 1161, 1397, 1854, 1572, 1567
 1162, 1307, 1854, 1570, 1397
 1163, 1572, 1571, 2009, 1570
 1164, 1571, 1567, 2009, 1851
 1165, 1861, 2210, 2211, 2212
 1166,  907, 1829, 1830, 1947
 1167, 2213, 1755, 1713, 1756
 1168, 1861, 2212, 2211, 2214
 1169, 1861, 1388, 1829, 1794
 1170, 1861, 2210, 1830, 1829
 1171, 1829, 1830, 1947, 2210
 1172, 2210, 2212, 1947, 2211
 1173, 1389, 1388, 1829, 1387
 1174, 1388, 1829, 1387, 2210
 1175, 2210, 1829, 1910, 1947
 1176, 1386, 2211, 2210, 1971
 1177, 1971, 1387, 2210, 1386
 1178, 2190, 2203, 2201, 2215
 1179, 1205, 1206, 1204, 1912
 1180, 2161, 2204, 2100, 2160
 1181, 2161, 1393, 1394, 2216
 1182, 1951, 1378, 1208, 1632
 1183, 2217, 2218, 2203, 1393
 1184, 1395, 1394, 2161, 1393
 1185, 1513, 1614, 1279, 1278
 1186, 1513, 1615, 1614, 1278
 1187, 1512, 1616, 1614, 1615
 1188, 1512, 1509, 1516, 1620
 1189, 1343, 1617, 2207, 1344
 1190, 1505, 1514, 1513, 1515
 1191, 2097, 1875, 1876, 1768
 1192, 2219, 2097, 1231, 2205
 1193, 1957, 2205, 1956, 1954
 1194, 1957, 2205, 2219, 2170
 1195, 1368, 2001, 2220, 1378
 1196, 1957, 2219, 1632, 2170
 1197, 1368, 1267, 2001, 1378
 1198, 1951, 1036, 1207, 1035
 1199, 1205, 1956, 1912, 1911
 1200, 1791, 1252, 1379, 1390
 1201, 1861, 1830, 1862, 1794
 1202, 1349, 1385, 1387, 1389
 1203, 1793, 1388, 1379, 1241
 1204, 1794, 1793, 1388, 1792
 1205, 1791, 1744, 1412, 2163
 1206, 1861, 1793, 1388, 1794
 1207, 1349, 1384, 1385, 1389
 1208, 1349,  513, 2026, 1379
 1209, 2081, 2020, 2077, 2080
 1210, 1424, 2020, 1421, 1477
 1211, 1424, 2011, 1605, 1419
 1212, 1419, 1424, 1418, 1423
 1213, 1424, 1605, 2079, 1604
 1214, 1422, 1413, 1421, 1424
 1215, 1424, 1477, 1421, 1422
 1216, 1424, 1605, 2077, 2079
 1217, 1368, 1378, 2220, 1958
 1218, 1368, 2001, 1366, 1574
 1219, 1257, 1473, 1714, 1415
 1220, 1593, 1415, 1592, 1714
 1221, 1414, 1258, 1257, 1574
 1222, 1414, 1579, 1577, 1582
 1223, 1413, 1414, 1416, 1579
 1224, 1481, 1487, 2221, 1372
 1225, 2002, 1372, 1482, 1489
 1226, 1482, 1489, 1484, 1363
 1227, 1271, 1665, 1660, 1460
 1228, 1261, 1263, 1270, 2104
 1229, 1270, 1665, 1271, 1460
 1230, 1271, 1661, 1455, 1456
 1231, 1271, 1455, 2222, 1269
 1232, 1271, 1262, 1265, 1665
 1233, 1933, 2223, 2153, 2155
 1234, 2155, 1553, 2153, 1472
 1235, 2155, 2224, 2189, 1553
 1236, 2155, 1451, 1447, 2223
 1237, 1227, 1956, 1225, 1911
 1238, 1446, 2156, 2203, 1447
 1239, 1933, 1934, 1447, 2156
 1240, 2225, 1661,  495,  456
 1241, 1933, 1874, 2154, 1808
 1242, 1648, 2027, 2029, 2226
 1243, 1309, 2226, 2029, 1857
 1244, 1305, 1857, 1309, 1856
 1245, 2030, 1309, 2029, 1306
 1246, 2029, 1306,  280, 2030
 1247, 1585, 1282, 1583, 2118
 1248, 1585, 2149, 1282, 2118
 1249, 2056, 2053, 1585, 2149
 1250, 2136, 2045, 1979, 1135
 1251, 2136, 1135, 1979, 1136
 1252, 2045, 1134, 2086, 2083
 1253, 1940, 2136, 2045, 1521
 1254, 2041, 1545, 1549, 1547
 1255, 2045, 2086, 1134, 1135
 1256, 1096, 1549, 1135, 1979
 1257, 1954, 2209, 1077, 1038
 1258, 2041, 1979, 1545, 1521
 1259, 1518, 1545, 1521, 1520
 1260, 1518, 1506, 1522, 1523
 1261, 1518, 1527, 1519, 1973
 1262, 2041, 2086, 2047, 2042
 1263, 1518, 1506, 1525, 1981
 1264, 1973, 1521, 1518, 1979
 1265, 1226, 1913, 1912, 1908
 1266, 1545, 1520, 2049, 1521
 1267, 1293, 1275, 1282, 1281
 1268, 1281, 1288, 1276, 1283
 1269, 1283, 1290, 1281, 1287
 1270, 1281, 1293, 2227, 1289
 1271, 1584, 1590, 1586, 2095
 1272, 1290, 1591, 1286, 1588
 1273, 1290, 1289, 1591, 2095
 1274, 1500, 2191, 1536, 1538
 1275, 1500, 1737, 1493, 1495
 1276, 1492, 2228, 1538, 1495
 1277, 1496, 2191, 1551, 1501
 1278, 1492, 2191, 1496, 1501
 1279, 1542, 1398, 1395, 1566
 1280, 1542, 1551, 2100, 1396
 1281, 1541, 1654, 1498, 2229
 1282, 1542, 1496, 1650, 2101
 1283, 1541, 1496, 1498, 1650
 1284, 2230, 2203, 1451, 2217
 1285, 2203, 1451, 2217, 1442
 1286, 2203, 2216, 1446, 1442
 1287, 2201, 2203, 2216, 1446
 1288, 1442, 1451, 1447, 2203
 1289, 1529, 1881, 2180, 1885
 1290, 1544, 2231, 1534, 1886
 1291, 1544, 1320,  751, 1535
 1292, 1544, 2231,  713, 2232
 1293, 1544,  751, 1320,  712
 1294, 1544,  712, 1320, 2232
 1295, 1754, 1688, 1734, 1687
 1296, 1754, 1875, 1757, 1756
 1297, 1754, 1755, 1734, 1711
 1298, 1754, 2213, 1875, 1756
 1299, 1754, 2213, 1789, 1875
 1300, 1348, 2193, 2179, 1920
 1301, 2143, 1288, 1292,  361
 1302, 2126, 1919, 2129, 1927
 1303, 1928, 2126, 2130, 2133
 1304, 1932, 1930, 2130, 1928
 1305, 1288, 1287, 2233,  399
 1306, 1928, 2126, 1919, 1930
 1307, 1722, 2178, 1720, 1721
 1308, 2131, 2178, 1720, 1722
 1309, 1863, 1869, 1846, 1871
 1310, 2065, 1863,  214, 2234
 1311, 1863, 1829, 1871, 1879
 1312, 1863, 1909, 1387, 1829
 1313, 1863, 1387, 1385, 1389
 1314, 1248, 2026, 1383, 2181
 1315, 1390, 1792, 2025, 1384
 1316, 1987, 1869, 1384, 1986
 1317, 1987, 1248, 2025, 1383
 1318, 1987, 1248, 1383, 2181
 1319, 1383, 1987, 1868, 1384
 1320, 1383, 1988, 2181,  552
 1321, 1383, 1988, 1385, 1984
 1322, 1987, 1247, 2181, 1985
 1323, 1496, 2100, 2191, 2228
 1324, 2100, 2204, 2191, 2228
 1325, 1395, 1303, 1393, 2218
 1326, 1395, 2161, 2100, 2160
 1327, 1541, 2109, 1498, 1652
 1328, 1542, 1543, 1503, 1551
 1329, 1541, 1496, 1503, 1498
 1330, 2197, 2133, 2196, 2235
 1331, 1215, 1210, 1760, 2196
 1332, 1283,  439, 1287,  400
 1333, 1215, 1213, 2197, 1699
 1334, 2197, 2133, 2165, 1927
 1335, 1816, 1927, 1211, 2165
 1336, 1214, 1634, 1635,  582
 1337, 1214,  622, 1213,  621
 1338, 1211, 1216, 1212, 1845
 1339, 1591, 1289,  219, 2096
 1340, 1208, 1843, 1216, 1635
 1341, 1211, 1762, 1761, 1816
 1342, 1211, 1210, 1845, 1212
 1343, 1835, 2059, 2147, 2058
 1344, 1288, 1283, 1287,  400
 1345, 1902, 2141, 2145, 1903
 1346, 2059, 1903, 2139, 2138
 1347, 1833, 2138, 2059, 2058
 1348, 1798, 1904, 2157, 1684
 1349, 1690, 2221,  499, 1486
 1350, 1690, 1487, 2099, 2221
 1351, 1689, 1694, 1690,  498
 1352, 1588, 1286, 1287, 2233
 1353, 1589,  477, 1287,  478
 1354,  460, 1694,  499, 1486
 1355, 1691, 2236, 1692, 1487
 1356, 1689, 1687, 1692, 1734
 1357, 1626, 1627, 2237, 2238
 1358, 1626, 1488, 2238, 1491
 1359, 1377, 1197,  121, 1194
 1360, 1624, 1626, 1627, 2067
 1361, 2166, 1937, 2167, 1297
 1362, 1672, 1300, 1776, 1673
 1363, 1671, 1672, 1776, 1673
 1364, 1487, 2221, 2206, 2099
 1365, 1496, 2100, 2228, 2101
 1366, 2190, 2202, 2191, 2239
 1367, 2190, 2161, 2203, 2224
 1368, 1395, 2161, 2160, 2218
 1369, 2100, 2228, 2101, 2160
 1370, 1492, 1500, 1495, 1538
 1371, 2161, 2160, 2218, 2204
 1372, 1512, 1617, 1621, 1345
 1373, 1512, 1615, 1514, 1616
 1374, 2106, 1619, 1509, 1511
 1375, 1512, 1619, 1621, 1617
 1376, 1512, 1618, 1619, 1617
 1377, 1509, 1511, 1619, 1618
 1378, 2240, 1579, 2241, 2242
 1379, 1418, 1602, 1579, 1603
 1380, 1458, 1456, 2225,  455
 1381, 1864,  888,  889,  928
 1382, 1287, 1587,  478,  439
 1383, 1579, 1577, 2243, 2242
 1384, 1579, 2243, 1602, 2241
 1385, 1579, 1578, 1577, 2240
 1386, 1417, 1579, 2241, 2240
 1387, 1691, 2236, 1487, 1485
 1388, 1691, 1694, 1630, 1488
 1389, 1691, 1733, 1692, 2236
 1390, 1689, 1734, 1736, 2244
 1391, 1689, 2244, 1736, 1693
 1392, 1734, 2245, 1736, 2244
 1393, 1734, 2245, 1977, 1736
 1394, 1478, 1479, 1474, 1564
 1395, 1742, 1557, 2018, 1478
 1396, 1584, 1590, 2095, 1591
 1397, 1555, 1562, 1560, 1968
 1398, 1420, 1476, 1478, 1474
 1399, 1478, 1557, 1474, 1476
 1400, 1554, 1966, 1351, 1354
 1401, 1460,  378, 1665,  417
 1402, 1741, 1966, 1557, 2024
 1403, 1741, 1744, 2246, 2164
 1404, 1406, 1407,  414, 1457
 1405, 1406, 1407, 1644,  414
 1406, 1638, 1648, 1643, 1640
 1407, 1638, 1643, 1648, 1405
 1408, 1804, 1764, 1766, 1219
 1409, 1805, 2247, 1764, 1219
 1410, 1220, 1759, 1812, 1218
 1411, 1749, 1805, 1217, 1750
 1412, 1220, 1219, 1749, 1753
 1413, 2247, 1805, 1217, 1219
 1414, 1275, 1278, 1282, 1277
 1415,  769, 2188, 2248, 2249
 1416, 1749, 2188, 1805, 1750
 1417, 2179, 2182, 1722, 2131
 1418, 1919, 1815, 1931, 1918
 1419, 2193, 2179, 2127, 1722
 1420, 1348, 1815, 1916, 1919
 1421, 1348, 1920, 2179, 1919
 1422, 1348, 1352, 1607, 2193
 1423, 1804, 2213, 1788, 1787
 1424, 2125, 2250, 2213, 1787
 1425, 2125, 1711, 2213, 2245
 1426, 2125, 2251, 2176, 2141
 1427, 2125, 2250, 2251, 2245
 1428, 1754, 1711, 2213, 1755
 1429, 1756, 1763, 2111, 1765
 1430, 1763, 2213, 1756, 1875
 1431, 1754, 2213, 1711, 2245
 1432, 1754, 2252, 1875, 1789
 1433, 1493, 1494, 2071, 2070
 1434, 2071, 1494, 2253, 2070
 1435, 2106, 1494, 2072, 2110
 1436, 2106, 2254, 1498, 1652
 1437, 1509, 1668, 1620, 2108
 1438, 2071, 1436, 2255, 2256
 1439, 2071, 2255, 1436, 1547
 1440, 1954, 1951, 1957, 1953
 1441, 1951, 1035, 1959, 1036
 1442, 1208, 1844, 1843, 1959
 1443, 1203, 1206, 1209, 1215
 1444, 1844, 1034, 1841, 1035
 1445, 1842, 1034, 1844, 1212
 1446, 1212, 1207, 1035, 1844
 1447, 1074, 1212, 1207, 1035
 1448, 1842, 1844, 1216, 1212
 1449, 1572,  271, 2031,  274
 1450, 1462, 1472, 1465, 1468
 1451, 1466, 1462, 1469, 1921
 1452, 1472, 2191, 1536, 2239
 1453, 1492, 2228, 2191, 1538
 1454, 1584, 1589, 1287, 1587
 1455, 1492, 1497, 1496, 2228
 1456, 1708, 1470, 1537, 1536
 1457, 1679, 1899, 2169, 2137
 1458, 1900, 1905, 1682, 2140
 1459, 1678, 2157, 1904, 1684
 1460, 1682, 1759, 2257, 2258
 1461, 1905, 2140, 1123, 1683
 1462, 1678, 1905, 1904, 2157
 1463, 1678, 2157, 1686, 2259
 1464, 1682, 1899, 2258, 1680
 1465, 1904, 1679, 2168, 2137
 1466, 1678, 1682, 1904, 1905
 1467, 1764, 1080, 1765, 1766
 1468, 1764, 1878, 2260, 1877
 1469, 1908, 1116, 1225, 1774
 1470, 2260, 1877, 2247, 1764
 1471, 1225, 1952, 1956, 1954
 1472, 1804, 1764, 1805, 1877
 1473, 1108, 1069, 1721, 1930
 1474, 1928, 2133, 2130, 2261
 1475, 1928, 2261, 2130, 1932
 1476, 1928, 2196, 2261, 1150
 1477, 1930, 1931, 1070, 1918
 1478, 1911, 1908, 1912, 1907
 1479, 1930, 2178, 1148, 1932
 1480, 1148, 1930, 1108, 2178
 1481, 1449, 1934, 1447, 1803
 1482, 1440, 1442, 1441, 1649
 1483, 1449, 1799, 1800, 1803
 1484, 1933, 2262, 2156, 2158
 1485, 1933, 1803, 1934, 2262
 1486, 1440, 1447, 1442, 1451
 1487, 1362, 2263, 2264, 1491
 1488, 1356, 1357, 2265,  318
 1489, 1362, 2264, 2263, 1993
 1490, 1356, 1362, 1993, 1358
 1491, 1206, 1912, 1950, 1914
 1492, 1355, 1995, 1356, 1365
 1493, 1363, 1355, 1364, 1358
 1494, 1355, 1362, 1363, 1365
 1495, 1362, 2263, 1656, 1994
 1496, 1428, 1437, 1432, 1434
 1497, 1436, 1437, 2255, 1438
 1498, 1436, 1430, 2073, 1439
 1499, 1438, 1432, 1428, 1437
 1500, 1436, 2266, 1437, 1435
 1501, 1863, 1871, 1846, 1879
 1502, 1863, 1869, 1871, 1384
 1503, 1869, 1871, 1384, 1986
 1504, 1867, 1869, 1192, 2065
 1505, 1869, 2052, 1192, 1887
 1506, 1978, 1866, 2064, 1540
 1507, 1869, 1984, 1384, 2065
 1508, 2218, 1569, 1303,  449
 1509, 1482, 2003,  959, 1371
 1510, 1482, 1485,  961,  922
 1511, 1371, 1957, 1483, 1372
 1512, 1370, 1957, 1371, 1372
 1513, 1487, 2206, 1372, 1483
 1514, 2002, 1363, 1482, 2003
 1515, 1368, 1958, 2003, 1371
 1516, 2002, 1372, 1489, 1367
 1517, 1481, 1487, 1485, 1488
 1518, 1372, 1489, 1367, 1490
 1519, 2081, 1411, 2082, 2267
 1520, 2081, 2077, 2074, 2080
 1521, 2164, 2020, 2268, 2269
 1522, 1424, 1421, 2020, 2077
 1523, 1478, 2020, 2023, 2019
 1524, 2081, 2268, 2020, 2080
 1525, 2270, 1411, 2082, 2123
 1526, 2081, 2077, 2020, 2271
 1527, 1567, 2006, 1653, 1565
 1528, 1849, 1653, 2006, 1780
 1529, 1849, 1653, 2008, 1566
 1530, 2035, 2008, 1848, 1853
 1531, 1397, 1854, 1567, 1398
 1532, 1393, 2216, 1646, 1391
 1533, 1572, 1567,  271, 2009
 1534, 1567, 2031,  271, 2007
 1535, 1492, 1494, 1498, 1497
 1536, 1541, 1503, 1543, 2229
 1537, 1498, 1652, 2254, 1654
 1538, 1541, 1652, 1850, 2109
 1539, 1541, 1850, 1652, 1566
 1540, 1541, 1650, 1498, 2109
 1541, 2106, 2272, 1498, 2254
 1542, 1294,  239, 1298,  238
 1543, 1294, 1297, 2103, 1295
 1544, 1300, 1294, 1299,  238
 1545, 1294, 1299,  238, 1298
 1546, 1298, 2273, 2274,  242
 1547, 1298, 2273,  242,  239
 1548, 1294, 1298,  239, 2273
 1549, 1298, 2275, 1299,  241
 1550, 1221, 1226, 1229, 1227
 1551, 1221, 1223, 1222, 1768
 1552, 1226, 1912, 1225, 1908
 1553, 1221, 2205, 2134, 1225
 1554, 1226, 1913, 1925, 1912
 1555, 1308, 1854, 1398, 1392
 1556, 1458,  416,  455,  415
 1557, 1229, 1912, 1227, 1226
 1558, 1640, 2276,  282, 2277
 1559, 1320,  751,  750,  711
 1560, 1409, 2060, 1410, 1408
 1561, 1543, 1566, 1398, 1542
 1562, 1226, 1912, 2278, 1229
 1563, 2279,  245,   11,   35
 1564, 1437, 1547, 2255, 1546
 1565, 2266, 1547, 2280, 1436
 1566, 2280, 1436, 2281, 2266
 1567, 1274,  253,  249,  250
 1568, 1746,  892, 1748,  931
 1569, 2282,    2,   14,   13
 1570, 2042, 1432, 1434, 2084
 1571, 1747, 2226, 1748,  892
 1572, 1437, 1546, 2041, 1547
 1573, 2043, 1437, 1546, 2041
 1574, 1288,  361, 1276,  400
 1575, 1600, 1467, 1598, 1464
 1576, 1776, 1138, 1777, 1099
 1577, 2283, 2258, 2187, 1899
 1578, 1810, 1752, 1900, 1759
 1579, 1356, 1358, 1637, 1357
 1580, 1798, 1684, 2157, 1802
 1581, 2140, 1682, 1683, 1905
 1582, 1682, 1899, 1759, 2258
 1583, 1904, 1679, 1684, 2168
 1584, 2259, 1905, 1124, 1683
 1585, 2101, 1568, 1569,  448
 1586, 1331,  105,  104,  371
 1587, 1899, 2169, 2137, 2186
 1588, 1733,  963, 1002,  962
 1589, 1564, 1479,  954,  953
 1590, 1679, 2137, 2169, 2168
 1591, 1723, 1943, 1608, 2284
 1592, 1920, 2193, 2179, 2127
 1593, 1289,  220,  216,  217
 1594, 2126, 1930, 2179, 1919
 1595, 1348, 1722, 1721, 2179
 1596, 1722, 2127, 2193, 1943
 1597, 1638, 1640, 1643, 1645
 1598,  757, 2182, 1720, 1944
 1599, 1694,  499, 1486, 1690
 1600, 2285,   44,  269,   43
 1601, 1400,  890, 2068,  891
 1602, 1866, 1869, 1986, 2052
 1603, 2180, 1529, 1532, 1881
 1604, 1868, 2064, 1531, 1375
 1605, 2286,  113,  252,  112
 1606, 1978, 1540, 2064, 1980
 1607, 2287,  376,  375,  100
 1608, 1498, 1497, 1494, 2110
 1609, 1493, 2072, 1494, 1495
 1610, 1498, 1496, 1503, 1492
 1611, 2071, 1550, 2280, 2107
 1612, 1962, 1381, 1964, 2092
 1613, 1902,  611,  572,  612
 1614, 1492, 1500, 1493, 1495
 1615, 2106, 1498, 1494, 2110
 1616, 2106, 1509, 1668, 1550
 1617, 1499, 1493, 1502, 2070
 1618, 1325,  989, 1743,  990
 1619, 1498, 2109, 1650, 1497
 1620, 1995,  320,  323,  319
 1621, 1492, 1503, 2070, 1499
 1622, 1503, 1498, 2229, 1541
 1623, 1399, 1409, 1408, 2069
 1624, 1686, 2157, 1085, 1124
 1625, 1964, 2288,  293,  290
 1626, 1332, 1328, 1333, 1686
 1627, 1328, 1333, 1125, 1126
 1628, 1404,  163,  711,    9
 1629, 1955,  136,  135,  800
 1630, 1522,  558, 1982,  519
 1631, 1686, 1085, 2157, 1086
 1632, 1269,  926, 2222, 1658
 1633, 1678, 2259, 1686, 1681
 1634, 1686, 1124, 2259, 2157
 1635, 1686, 1086, 2157, 1872
 1636, 1440, 1649, 1644, 1444
 1637, 2059, 2251, 2289, 2147
 1638, 1644,  413,  414,  453
 1639, 1686, 2157, 1684, 1872
 1640, 2251, 2290, 2245, 2291
 1641, 1835, 2146, 1833, 1834
 1642, 1513, 1695, 1279, 1516
 1643, 2289, 1659, 2147, 2251
 1644, 2059, 2147, 2289, 2146
 1645, 2292, 2293, 2294,  863
 1646, 2004,  262,  265,  261
 1647, 2295, 1681, 1680,  734
 1648, 1233,  396, 1243,  435
 1649, 1233, 1243, 2296, 1236
 1650, 1861, 1232, 1862, 1830
 1651, 1861, 1232, 1793, 1862
 1652, 1233,  435, 1243, 1241
 1653, 1550, 2107, 1507, 1548
 1654, 1861, 1242, 2214, 1888
 1655, 2108,  444,  445,  484
 1656, 1445,  451,  491,  490
 1657, 1940, 1521, 2048, 1939
 1658, 1936, 1521, 1940, 1939
 1659, 2297, 2036,  745, 2039
 1660, 2039, 2036,  784, 2037
 1661, 1584, 1283, 1587, 1287
 1662, 2039, 2037,  785, 1941
 1663, 2298,   39, 2292,  862
 1664, 2130, 2261,  759,  720
 1665, 2143,  361, 2299, 1276
 1666, 1996,  902,  903,  942
 1667, 2126, 2133, 1927, 2129
 1668, 1852,  264,  265,  268
 1669, 1928, 1927, 2133, 2196
 1670, 2133, 2165, 1927, 2129
 1671, 1927, 1211, 2165, 2197
 1672, 1696, 2197, 2165, 1699
 1673, 1970,  515,  476,  119
 1674, 1930, 1108, 1069, 1109
 1675, 2066,   95,  381,  380
 1676, 1696, 1697, 2197, 1699
 1677, 2300, 2301,  819,  780
 1678, 2300, 2302, 1426, 1427
 1679, 2300, 1426, 1431, 1432
 1680, 2300, 2301,  780, 1427
 1681, 2300, 1426, 2172, 1431
 1682, 2300, 1427, 1426, 1432
 1683, 2303,  381,   94,  382
 1684, 1704, 1297, 1299, 1777
 1685, 1937, 1297, 1777, 1670
 1686, 1707, 1936, 1704, 1935
 1687, 1988,  631,  591,  592
 1688, 1694,  460,  499,  459
 1689, 2304, 1935, 2305, 1973
 1690, 1936, 1937, 1938, 2166
 1691, 1704, 1777, 2306, 1707
 1692, 2136, 1937, 1973, 1521
 1693, 1725,  629,  668,  628
 1694, 2305, 1973, 1137, 2304
 1695, 1935, 1937, 1777, 1778
 1696, 1346, 1352, 1916, 1969
 1697, 1554, 1967, 1354, 1969
 1698, 2066,   95,   94,  381
 1699, 1350, 1346, 1284, 1347
 1700, 1741, 1966, 2024, 2269
 1701, 1478, 1741, 1742, 1557
 1702, 1284, 1351, 1285, 1353
 1703, 1285, 1743, 1350, 1325
 1704, 1761, 1817, 1818, 1562
 1705, 1648, 2027, 2226, 1747
 1706, 2307,  516,  230,   18
 1707, 1633,  620, 1950,  619
 1708, 1632, 1633, 1208, 1956
 1709, 1214,  582, 1635, 2151
 1710, 1239,  225,  226,  229
 1711, 2152,  607,  608,  647
 1712, 1633, 1632, 1208, 1635
 1713, 1634,  581, 1635,  582
 1714, 1952, 1225, 1911, 1076
 1715, 2273,   22, 2308,  242
 1716, 2031,  271,  275,  274
 1717, 1828,  968,  969, 1008
 1718, 1496, 2228, 1650, 2101
 1719, 2001, 2309, 2220, 1378
 1720, 2310,  266,   43,  269
 1721, 1939,  676, 1775,  675
 1722, 1238, 1821, 2053, 1982
 1723, 2174, 1089, 1049, 1050
 1724, 1553,  567,  527,  528
 1725, 2309, 2311, 1843, 2312
 1726, 2204,  488,  527,  487
 1727, 1818, 1561, 2150, 1714
 1728, 2313, 1818, 1841, 1714
 1729, 2309, 1843, 1959, 1378
 1730, 1568,  448,  408,  409
 1731, 2001, 1714, 1573, 2314
 1732, 1659, 2290, 2289, 1661
 1733, 2290, 2244, 2291,  496
 1734, 1964,  289,  290,  293
 1735, 1858,  855,  856,  895
 1736,  496, 1666, 1661, 2290
 1737, 2041, 2045, 2086, 2083
 1738, 1661, 2289,  495, 2290
 1739, 2225, 1661, 2289,  495
 1740, 2291, 2290,  496, 2289
 1741,  496, 2289,  535, 2291
 1742, 2042, 1438, 1432, 2315
 1743, 2049,  637, 1939,  636
 1744, 2316,  855,  854,   47
 1745, 2276,  282,  102,  103
 1746, 2049,  638, 2043, 2048
 1747, 2049, 1521, 1938, 1939
 1748, 2225, 2063,  455,  494
 1749, 2041, 2048, 2049, 2043
 1750, 1208, 1378, 1374, 1632
 1751, 1633, 1950, 1205, 2170
 1752, 1843, 1374, 1378, 2312
 1753, 1811,  612,  613,  652
 1754, 1208, 1212, 1844, 1207
 1755, 2013, 2317,   97,  297
 1756, 1842, 1212, 1216, 1845
 1757, 2318, 2243,  838, 2319
 1758, 1216, 1635, 1843, 2151
 1759, 1205, 1634, 1209, 1950
 1760, 1842, 1843, 1818, 1216
 1761, 1818, 2309, 1843, 1841
 1762, 1824,  493,  532,  492
 1763, 1977,  963,  964, 1003
 1764, 1734, 2245, 2244, 1688
 1765, 1604,   85,  336,   84
 1766, 2320,  303,   96,  300
 1767, 2195, 1264, 2321,  846
 1768, 1788,  576,  615,  575
 1769, 2251, 2245, 1659, 1945
 1770, 2322, 1326,  167, 1144
 1771, 1223,  655,  616,  656
 1772, 2059, 2139, 2141, 1712
 1773, 1906,  610,  571,  611
 1774, 2125, 1711, 1712, 1713
 1775, 2125, 2251, 2141, 1712
 1776, 2125, 2245, 2213, 2250
 1777, 2251, 2323, 2147, 2324
 1778, 1691, 1488, 1732, 1485
 1779, 1906,  571,  572,  611
 1780, 1911, 1114, 1075, 1115
 1781,  437, 2199,  436, 1972
 1782, 1637,  424, 2325, 1258
 1783, 1691, 1732, 1736, 1733
 1784, 2150,  505,  545,  544
 1785, 1689, 1734, 1688, 1687
 1786, 2311,  504, 1592,  505
 1787, 1630, 1488, 1694, 1627
 1788, 1924,  137,  696,  697
 1789, 1265, 1663, 1630, 1266
 1790, 2284,  705,  665,  666
 1791, 1624,  304, 1631,  307
 1792, 1626, 2238, 2237, 2326
 1793, 1909,  214, 1180,  213
 1794, 1583, 1278, 2119, 2118
 1795, 1585, 2118, 1583, 1870
 1796, 1585, 1587, 1282, 2149
 1797, 1282, 2118, 2149, 1277
 1798, 1437, 1435, 2266, 2083
 1799,  591, 1985,  631, 1988
 1800, 1988, 1375, 1985,  631
 1801, 1292,  243, 2227,  246
 1802, 1988, 1375, 2327, 1984
 1803, 2282,   13, 2328,  243
 1804, 1402, 1828,  969, 1443
 1805, 1383, 2181, 1988, 1985
 1806, 1621, 1622, 2034, 2208
 1807, 2279,  216,    1,   11
 1808, 2056, 2055, 1515, 2117
 1809, 2094,  248,  247,  244
 1810, 2328,  218,  217,   12
 1811, 1512, 1621, 1619, 1620
 1812, 1838,  222,   32,   33
 1813, 1619, 1617, 2329, 2208
 1814, 1473, 1580, 1714, 2313
 1815, 1381, 1382,   52,  849
 1816, 1781,  899,  860,  900
 1817, 1616,  979,  978,  939
 1818, 1283,  400,  440,  439
 1819, 2282,  243,  115,    2
 1820, 1420, 1416, 1473, 1475
 1821, 1381,  889,  849,  850
 1822, 2227,  243,  244,  247
 1823, 1965,  292,  295,  291
 1824, 1381,  889,  888,  849
 1825, 2330, 2094, 2227,  244
 1826, 2330,   11,   12,  217
 1827, 2331, 1425, 2332, 1171
 1828, 1555, 1474, 1710, 1564
 1829, 1459, 2333,  377,  376
 1830, 1555, 1554, 1815, 1969
 1831, 2294,  902,  863,  903
 1832, 1818, 2311, 1714, 2150
 1833, 1761, 1842, 1840, 1818
 1834, 1473, 1561, 2313, 1714
 1835, 1555, 1562, 1561, 1560
 1836, 1962, 1965,  292,  295
 1837, 2207, 2033, 2334, 1896
 1838, 2282,   14,  218,   13
 1839, 2328,  218,   12,   13
 1840, 2034,  405, 1622, 2207
 1841, 2034, 2008, 2005, 2208
 1842, 2034, 2004, 2008, 1853
 1843, 2207, 1344, 2034, 1896
 1844, 1286,  223,  220,  224
 1845, 1962, 1964,  293,  292
 1846, 1381,  850, 2092,  889
 1847, 2207, 1617, 2208, 1344
 1848, 2207, 2033, 2034,  405
 1849, 2034, 2335, 1344, 2208
 1850, 2081, 2020, 2268, 2164
 1851, 2081, 2020, 2164, 2271
 1852, 1588,  226,  223,  227
 1853, 1590, 1839, 2095, 1838
 1854, 1591, 1286,  220, 1289
 1855, 1744, 1412, 2162, 1795
 1856, 1838,   33,  219,  222
 1857, 2336,  231,  234,   29
 1858, 1744, 2164, 2163, 2246
 1859, 1311,  432, 2122, 1310
 1860, 1620, 1516, 1345,  443
 1861, 2337,  865, 2338,   36
 1862, 1591,  219,  223,  222
 1863, 2339,   15,  221,  218
 1864, 1311, 2081, 1412, 1411
 1865, 1313, 1411, 1318, 2121
 1866, 2340,   16, 2233,  438
 1867, 2233,   15,   16,  221
 1868, 2081, 2341, 1412, 1411
 1869, 2081, 1412, 2341, 2164
 1870, 1440, 1667, 1450, 1644
 1871, 1648, 1747, 1405, 2028
 1872, 1649, 1748, 1646, 2342
 1873, 1442, 1649, 1646, 2342
 1874, 2050,  849, 1381,  888
 1875, 1401, 1441, 1667, 1402
 1876, 1638, 1645, 1643, 1642
 1877, 1639, 1648, 1646, 1649
 1878, 1639, 1649, 1646, 1444
 1879, 1233, 1242, 1243, 1236
 1880, 1235, 1318, 1314, 1234
 1881, 1297, 2166, 1296, 2103
 1882, 1232, 2343, 1716, 1715
 1883, 1235, 1236, 1244, 1312
 1884, 1478, 1741, 1557, 2024
 1885, 2088, 1131, 1425, 2091
 1886, 1563, 1555, 1559, 1562
 1887, 1587,  440,  479,  439
 1888, 2286,  252,  113,  249
 1889, 1561, 1714, 1593, 2150
 1890, 2339,   15, 2233,  221
 1891, 1286,  224,  220,  221
 1892, 1413, 1421, 1420, 1422
 1893, 1473, 1561, 1714, 1593
 1894, 1473, 1480, 1561, 1593
 1895, 2340,  477, 2307,   17
 1896, 1555, 1561, 1710, 1474
 1897, 2011, 1419, 1424, 1418
 1898, 1839,  944,   32,   31
 1899, 2310, 2005,  269, 2007
 1900, 1839,   32,  222,  225
 1901, 1416, 1420, 1413, 1418
 1902, 1478, 2020, 1477, 1421
 1903, 2051,  295,  299,  298
 1904, 2344,  633,   21,   20
 1905, 2274,   23,   24,  241
 1906, 2020, 1421, 2022, 2077
 1907, 2345,  228,   31,  225
 1908, 2292,   39,  863,  862
 1909, 1424, 1421, 2077, 2011
 1910, 1434, 2083, 1172, 1133
 1911, 1420, 1613, 1603, 1475
 1912, 1420, 1416, 1603, 1418
 1913, 1588,  223,  224,  227
 1914, 1478, 2023, 1742, 2019
 1915, 2118, 1279, 2149, 1277
 1916, 2340,  438,  477,   16
 1917, 1818, 1563, 1561, 1840
 1918, 1818, 1843, 2309, 2311
 1919, 1435, 2083, 1133, 2266
 1920, 1965, 2333,  291,  294
 1921, 1818, 1561, 1714, 2313
 1922, 1677, 1676, 1238, 1669
 1923, 1818, 1561, 2313, 1840
 1924, 1256, 1414, 1258, 1257
 1925, 1256, 1415, 1257, 1592
 1926, 1304,  233,   19,   20
 1927, 1620,  482, 1516,  443
 1928, 1473, 1710, 1475, 2313
 1929, 2102, 2148, 1304,  230
 1930, 1473, 1416, 1580, 1475
 1931, 2041, 1549, 1545, 1979
 1932, 2263, 1491, 1656, 1626
 1933, 1626, 2346, 2326,  310
 1934, 1626, 2263, 1491, 2238
 1935, 1451,  530,  490,  491
 1936, 2263, 2347, 2326, 1993
 1937, 2307,   17,  477,  516
 1938, 2263, 2346, 1994,  313
 1939, 2117, 1020,  980,  981
 1940, 2263, 2346,  313, 2326
 1941, 1615,  940,  941,  980
 1942, 2287, 1963, 1965,  291
 1943, 1237,  226,  227,  230
 1944, 1428, 1425, 1434, 1433
 1945, 1360, 1577, 1258, 2015
 1946, 1355, 1995, 1360, 1357
 1947, 2002, 1574, 1366, 1358
 1948, 1258, 1577, 1360, 1574
 1949, 2023, 2271, 2022,  913
 1950, 2348,   30,  231,   29
 1951, 1257, 1258, 1259, 1574
 1952, 2348,   30,  228,  231
 1953, 1258, 1574, 1358, 1366
 1954, 1440, 1447, 1451, 1448
 1955, 1833, 1834, 2145, 1801
 1956, 1835, 2147, 2225, 2060
 1957, 1704, 1705, 1706,  787
 1958, 2287, 1642, 1457, 1963
 1959, 2167,  556,  557,  596
 1960, 1835, 2060, 2225, 2063
 1961, 2251, 2147, 2323, 1659
 1962, 2251, 1945, 2324, 2349
 1963, 2251, 1659, 2323, 1945
 1964, 1520,  558,  559,  598
 1965, 1800, 1823, 1835, 1834
 1966, 1409, 1835, 2060, 2061
 1967, 1677, 1059, 2057, 1060
 1968, 1523, 1522, 1982, 2053
 1969, 2008, 1653, 1780, 2350
 1970, 2102,  229,  233,  232
 1971, 1304,   18,  555,   19
 1972, 1294,  239,  235,  236
 1973, 2034, 2208, 2005, 2335
 1974, 1300,  237,  234,  238
 1975, 2208, 2005, 1780, 2008
 1976, 1288, 1276, 2143, 1281
 1977, 1287, 1290, 1281, 1286
 1978, 1288, 1292,  361,  360
 1979, 1281, 2227, 2143, 1292
 1980,  361, 1276, 2143, 1288
 1981, 2344,   21,  239,  236
 1982, 1228,  805,  804,  765
 1983, 1237, 1585, 1239, 1238
 1984, 1940, 2045, 2136, 2040
 1985, 2350,  898,  899,  938
 1986, 2336,  234,   28,   29
 1987, 1746,  931,  930,  891
 1988, 2102, 1295, 1304, 1820
 1989, 1240, 1672, 1820, 1821
 1990, 1934, 1048, 1008, 1009
 1991, 2102,  230, 1304,  233
 1992, 1304,   18,  516,  555
 1993, 2020, 2022, 2023, 2271
 1994,  229,  230, 1237, 2102
 1995, 1585, 1237, 1239, 1584
 1996, 1238, 1670, 1821, 1982
 1997, 1518, 2044, 1545, 1520
 1998, 2273, 2308,   22,  672
 1999, 1304,  233,   20,  236
 2000, 1505, 1525, 1974, 1550
 2001, 1991, 1278, 1583, 1282
 2002, 1513, 1278, 2119, 1615
 2003, 1513, 1695, 2118, 1279
 2004, 2351,   28,  234,  237
 2005, 2118, 1277, 1278, 1279
 2006, 2241, 1417,  331, 2014
 2007, 1584, 1287, 1290, 1283
 2008, 2273,  633,  672,   21
 2009, 2351,   27,   28,  237
 2010, 1591,  222, 1838,  219
 2011, 1290, 1591, 1289, 1286
 2012, 2352,  240,   27,  237
 2013, 1503,  975, 1014,  974
 2014, 1537,  564,  604,  603
 2015, 1591, 2095, 2096, 1838
 2016, 2071, 1436, 2281, 2280
 2017, 1505, 2107, 1511, 1510
 2018, 1294,  238,  235,  239
 2019, 2352,  240,   26,   27
 2020, 1505, 1509, 1511, 1550
 2021, 2280, 1548, 1550, 1547
 2022, 1223,  655, 1769, 1767
 2023, 1299,  241,  237,  238
 2024, 1525, 1547, 1546, 1974
 2025, 1240, 1675, 2102,  232
 2026, 1517, 1525, 1981, 1974
 2027, 1299,  241,  240,  237
 2028, 1962, 2051,  295,  296
 2029, 1821,  557,  556,  517
 2030, 1461, 1454, 1962, 1452
 2031, 1667, 1407, 1822, 1450
 2032, 1962, 2092, 1454, 1381
 2033, 1962, 2051,  296, 1381
 2034, 1548, 1057, 1096, 1056
 2035, 2353,    4,   26,   25
 2036, 1962, 1381,  293, 1964
 2037, 1304,  594,   20,   19
 2038, 2109,  445,  485,  484
 2039, 1226, 1224, 1229, 2278
 2040, 1226, 1912, 1227, 1225
 2041, 1907, 1908, 1913, 2354
 2042, 1907, 1960, 2355, 2356
 2043, 1298,  241,  238,  242
 2044, 2170, 1229, 1912, 1227
 2045, 1912, 2357, 1913, 1925
 2046, 2275,   24,  240,  241
 2047, 1912, 1914, 1925, 2278
 2048, 1938,  597,  636,  596
 2049, 2023,  953, 1564, 2018
 2050, 2273,   21,   22,  239
 2051, 1346, 1554, 1558, 1351
 2052, 1912, 1227, 1911, 1956
 2053, 1907, 1912, 1911, 1204
 2054, 1541, 1566, 1651, 1850
 2055, 1848, 1571, 1851, 1567
 2056, 2358,  158,  676,  157
 2057, 1618, 1511, 1619, 2254
 2058, 1505, 1507, 1550, 2107
 2059, 1619, 2208, 2329, 2350
 2060, 1619, 1652, 2008, 2350
 2061, 1265, 1266, 1630, 1262
 2062, 1452, 1270, 1461, 1454
 2063, 2060, 1456, 1408, 1455
 2064, 1410, 2060, 1456, 1408
 2065, 2060, 1661, 1456, 1455
 2066, 2256,  602,  601,  562
 2067, 2225, 2060, 1661, 1456
 2068, 1271, 1658, 1269, 2222
 2069, 1665, 1262, 1265, 1664
 2070, 1624, 1664, 2066, 1662
 2071, 1975,  520,  480,  481
 2072, 1265, 1262, 1630, 1662
 2073, 1262, 1266, 2359, 1264
 2074, 1265, 1665, 1660, 1271
 2075, 2274,  242,   23,  241
 2076, 2308,  827,   23,    3
 2077, 1271, 1659, 1455, 1661
 2078, 1270, 2089, 1262, 1665
 2079, 1261, 2104, 1264, 1263
 2080, 1732, 1630, 1663, 1266
 2081, 1663, 1693, 1736, 1666
 2082, 2308,  242,   22,    3
 2083, 1265, 1661, 1660, 1666
 2084, 1265, 1659, 1663, 1658
 2085, 1732, 1663, 1736, 1977
 2086, 2282,    2,  360,   14
 2087, 2080, 2077, 2074, 2079
 2088, 1288, 1276, 1283,  400
 2089, 2339,   15,   14,  399
 2090, 1655, 1363,  882, 1484
 2091, 1838,  944,  905,   32
 2092, 1424, 2077, 2020, 2080
 2093, 2212, 2360, 2361, 2362
 2094, 1292,  115,  361,  360
 2095, 2212, 2361, 1947, 2211
 2096, 2212,  829, 1949, 2363
 2097, 1830,  829,  868, 1949
 2098, 1949, 2212, 1830,  829
 2099, 2212, 1830, 1947, 1949
 2100, 1478, 2018, 2023, 1564
 2101, 1540, 1319, 1403, 1101
 2102, 1978, 1403, 1199, 2105
 2103, 1869, 1384, 1984, 1868
 2104, 2279,   34,    1,  216
 2105, 1540, 1319, 1980, 1403
 2106, 1689, 1691, 1734, 1692
 2107, 1689, 1688,  497,  498
 2108, 2290, 2244,  496, 1666
 2109, 2094,  248,  244,  245
 2110, 2096,  866,   34,   33
 2111, 2244, 2291,  496,  497
 2112,  458, 1666,  497, 1693
 2113, 1666,  497, 1693, 2244
 2114, 1972,  476,  475,  436
 2115, 2245, 2244, 1688, 2291
 2116, 2093, 2337, 2142, 2094
 2117, 1288,  400,  360,  361
 2118, 2339, 2282,   14,  218
 2119, 2299,  362,  114,  113
 2120, 2290, 2244, 2245, 2291
 2121, 2339, 2282,  218, 1291
 2122,  554, 1385,  515,  514
 2123, 2290, 1736, 1666, 1659
 2124, 2340,   17,  227,  224
 2125, 1428, 1426, 1432, 1431
 2126, 1708, 1426, 1431, 1892
 2127, 1436, 1439, 2281, 1435
 2128, 2065,  215,  214, 1192
 2129, 1492, 1501, 1496, 1499
 2130, 1493, 1436, 1430, 2073
 2131, 2309, 2220, 1378, 1959
 2132, 1288,  400, 1287,  399
 2133, 1208, 1632, 1374, 1635
 2134, 2001, 2309, 2314, 2220
 2135, 2001, 1573, 2220, 2314
 2136, 2328,   13,   12,  244
 2137, 2309, 1843, 1841, 1959
 2138, 1289,  216,  220,  219
 2139, 1636,  901,  902,  941
 2140, 1373, 1368, 1372, 1370
 2141, 1268, 1373, 1267, 1368
 2142, 1274, 2286,  249,  252
 2143, 2330, 1289, 2328, 2227
 2144, 1368, 2000, 2003, 2220
 2145, 1346, 1554, 1354, 1969
 2146, 1211, 1215, 2197, 1210
 2147, 1816, 2129, 1927, 2165
 2148, 1211, 1214, 1762, 1213
 2149, 1211, 1761, 1216, 1845
 2150, 2298,  257, 2292,   39
 2151, 2143,  249,  246,  250
 2152, 2298,   40,  260,  257
 2153, 1276,  362,  401,  361
 2154, 1990,  257,  256,  253
 2155, 1732, 1488, 1976, 1485
 2156, 2299,  114,  246,  249
 2157, 2299,  113,  114,  249
 2158, 1626, 2238, 1488, 1627
 2159, 1488, 1491, 1486, 2238
 2160, 1624, 1662, 1630, 1262
 2161, 1481, 1487, 1372, 1483
 2162, 1692, 2206, 1487, 2236
 2163, 2149,  440,  441,  480
 2164, 2143,  247,  250,  246
 2165, 1287,  400,  439,  399
 2166, 1591, 1286,  223,  220
 2167, 1481, 1488, 1485, 1491
 2168, 1478, 1564, 2023, 1479
 2169, 1527, 1677, 2055, 1523
 2170, 2338,   37, 2293,  251
 2171, 1485, 2236,  962, 1733
 2172, 1990, 1342,  253,  256
 2173, 1485,  923, 1629, 1976
 2174, 1689, 1688, 1734, 2244
 2175, 2142,  250,  247,  251
 2176, 1977, 1658,  925, 1732
 2177, 1481, 1484, 1489, 1491
 2178, 2338,  251,  248,   37
 2179, 1481, 1487, 1486, 2221
 2180, 1488, 1485, 1491, 1629
 2181, 1119, 1080, 1764, 1219
 2182, 1804, 1805, 1219, 1753
 2183, 1805, 2364, 2188, 2184
 2184, 2035, 1622,  444,  445
 2185, 2365,  255,  258,  111
 2186, 1274,  253,  252,  249
 2187, 1219, 1766, 1751, 1081
 2188, 1342,  253,  256,  252
 2189, 1764, 1119, 1219, 2247
 2190, 1992,  253,  250,  254
 2191, 1422, 1480,  467,  468
 2192, 1601, 1613, 2022,  875
 2193, 1466, 1921, 1469, 1946
 2194, 1430, 1426, 1709, 1439
 2195, 2300, 1432, 2301, 1427
 2196, 1999,  260,  256,  257
 2197, 2300, 2301, 1432, 1431
 2198, 2293,  251,   38,  254
 2199, 2340, 2307, 1589,  227
 2200, 1426, 1890, 1893, 2302
 2201, 2299, 1276,  362, 2286
 2202, 1426, 1892, 2172, 1431
 2203, 2300, 1890, 1426, 2302
 2204, 2366,  255,  112,  252
 2205, 1741, 1743, 2019, 1742
 2206, 1744, 1743, 1739, 2162
 2207, 2365, 2366, 1341,  255
 2208, 2020, 2080, 2268, 2021
 2209, 2120, 1285, 1744, 1741
 2210, 2081, 2082, 2271, 2267
 2211, 1411, 2082, 2123, 2081
 2212, 1990,  254,  257,  253
 2213, 1861, 1241, 1386, 1388
 2214, 1412, 1411, 2341, 2121
 2215, 1442, 1393, 2203, 2216
 2216, 1395, 2218, 2160, 1569
 2217, 2335,  260,  263,  259
 2218, 1442, 1393, 1302, 2217
 2219, 1279,  441,  402,  442
 2220, 2292,   39,   38,  863
 2221, 1618,  978, 1511,  977
 2222, 1301, 1646, 1393, 1302
 2223, 1308, 1305, 1854, 1392
 2224, 1647,  411, 1639, 1301
 2225, 1638, 1405, 1406, 1643
 2226, 1975,  480, 2149, 1695
 2227, 1301, 1302, 1393, 1303
 2228, 1220, 1752, 1810, 1759
 2229, 1331, 1307, 1570,  370
 2230, 2248, 2247, 1805, 1217
 2231, 2125, 1713, 2213, 1711
 2232, 2125, 1787, 1753, 2177
 2233, 2367,  267,  270,  107
 2234, 1960, 1913,  724, 2356
 2235, 1960,  763, 1913, 2357
 2236, 1206, 1215, 1760, 2368
 2237, 2357, 1914, 1912, 1206
 2238, 1960, 2356,  723, 2355
 2239, 2365,  258,  110,  111
 2240, 1960, 1760, 1204, 2355
 2241, 1210, 1760, 1112, 1113
 2242, 1210, 1072, 1845, 1073
 2243, 2365, 1280, 1343, 1341
 2244, 1341,  258,  255,  259
 2245, 2369,  261,  264,  109
 2246, 1896,  262,  258,  259
 2247, 2370,  368,  367,  108
 2248, 2216,  932,  933,  972
 2249, 1203, 1210, 1204, 1760
 2250, 1211, 1845, 1210, 1929
 2251, 1211, 2165, 2197, 1213
 2252, 1211, 2197, 1927, 1210
 2253, 1215, 1699, 2197, 1697
 2254, 1203, 1216, 1208, 1212
 2255, 2371,  156,  677,  678
 2256, 1246, 1883, 1730, 2180
 2257, 1873, 1127, 1946, 1329
 2258, 1539, 1532, 2171, 1882
 2259, 2180, 1883, 1730, 1881
 2260, 2335,  262,  259,  263
 2261, 1246, 2372, 2180, 1726
 2262, 1987, 2171, 1986, 2192
 2263, 2005,  265,  262,  266
 2264, 1532, 2180, 1882, 1539
 2265, 1998,  861,  862,  901
 2266, 2192, 1731, 1987, 1882
 2267, 1697, 1915, 1698, 1955
 2268, 2207,  365, 2334,  366
 2269, 1696,  760, 2183, 2235
 2270, 1964, 1963, 2028,  289
 2271, 1696, 1697, 1699, 1698
 2272, 2373,   41,  263,  260
 2273, 1215, 1760, 2368, 2196
 2274, 1319,  163,  712,  711
 2275, 2043,  639,  599,  600
 2276, 1915, 1215, 1699, 1209
 2277, 1697, 1915, 1215, 1699
 2278, 1438,  639,  600,  640
 2279, 1881, 1882, 1065, 1064
 2280, 1881, 1534, 1103, 1104
 2281, 1529, 1885, 2180, 1528
 2282, 1529, 1885, 1544, 1534
 2283, 1540, 1102, 1532, 1533
 2284, 1532, 2171, 1882, 1064
 2285, 1246, 2180, 2372, 1247
 2286, 1867, 1868, 1869, 1984
 2287, 1900, 1752, 1901, 1902
 2288, 1848,  406,  446,  445
 2289, 1678, 1685, 1679, 1681
 2290, 2334, 2369,  109,  261
 2291, 2036, 2085,  744,  783
 2292, 1779,   42,  263,   41
 2293, 1800, 1824, 1823, 1834
 2294, 1758, 2140, 2139, 2141
 2295, 2008, 1652, 1850, 1566
 2296, 2059, 1903, 2141, 2139
 2297, 1752, 1753, 2177, 2141
 2298, 2370, 2369, 2004,  264
 2299, 2369,  264,  108,  109
 2300, 1833, 2058, 1837, 2138
 2301, 2324, 2251, 1712, 2059
 2302, 2005,  269,  268,  265
 2303, 1752, 2177, 1811, 1901
 2304, 2370, 2367,  267, 1852
 2305, 1752, 1903, 2141, 1902
 2306, 1779,  266,  263,   42
 2307, 1244, 1310,  394,  433
 2308, 2059, 2324, 2058, 2138
 2309, 2059, 2289, 2251, 2176
 2310, 2125, 2177, 2250, 1787
 2311, 2009,  268,  271,  267
 2312, 1319, 1404, 1403, 1140
 2313, 2125, 2176, 2251, 2250
 2314, 2285, 2374, 2006, 2031
 2315, 2251, 2245, 2250, 2291
 2316, 2213, 1713, 1755, 1711
 2317, 2097, 2375, 2206, 2098
 2318, 1875, 1768, 1757, 2111
 2319, 1304,   19,  230,   18
 2320, 2285,  858,  857,   44
 2321, 1857,  893,  854,  894
 2322, 2097, 1768, 1876, 1231
 2323, 2006,  896,  857,  897
 2324, 2044,  598,  559,  599
 2325, 1222, 1768, 1763, 1771
 2326, 1763, 1767, 1877, 1807
 2327, 1331, 1369,  370, 1570
 2328, 1713, 1766, 2213, 1756
 2329,  514,  515, 1387, 1385
 2330, 1763, 1875, 1768, 1876
 2331, 2007,  269,  272,  268
 2332, 1620, 1621,  443, 1345
 2333, 1763, 1807, 1804, 1788
 2334, 1782, 1723, 1783, 1612
 2335, 1851,  368,  369,  408
 2336, 1783, 1612, 1730, 1726
 2337, 1783, 1105, 1727, 1066
 2338, 1783, 1727, 1067, 1066
 2339, 2156, 1048, 1009, 1049
 2340, 1620,  483,  482,  443
 2341, 1783, 1730, 1105, 1784
 2342, 1369,  273,  106,  270
 2343, 1303,  450,  449,  410
 2344, 1572,  271,  274,  270
 2345, 1724, 1610, 1106, 1783
 2346, 1107, 1724, 1610, 1106
 2347, 1516,  442, 1345,  443
 2348, 1783, 1067, 1727, 1610
 2349, 1878, 2111, 1078, 1117
 2350, 1878, 2111, 1079, 1078
 2351, 1465,  566,  606,  605
 2352, 1802, 1046, 1047, 1086
 2353, 2310,   43,  266,   42
 2354, 1764, 1878, 1118, 2260
 2355, 1888, 1241,  435,  436
 2356, 1770, 2376, 1877, 2112
 2357, 1888, 2200, 2199,  397
 2358, 1878, 2111, 1117, 2135
 2359, 1309, 2030, 1647, 1306
 2360, 2367,  107,  369,  368
 2361, 1878, 2111, 1765, 1079
 2362, 1504,  276, 1331,  273
 2363, 1650,  447,  486,  446
 2364, 1317, 1784, 1782, 1724
 2365, 2215, 2156, 1446, 1010
 2366, 2285,   44,  272,  269
 2367, 1246, 1987, 1248, 1731
 2368, 1331,  273,  276,  105
 2369, 1572, 1504, 1854, 1570
 2370, 1504,  273,  274,  277
 2371, 1284, 1324, 1323, 1353
 2372, 1610, 1323, 1611, 1327
 2373, 1612, 1246, 1727, 1730
 2374, 1783, 1784, 1726, 1730
 2375, 1782, 1726, 2377, 1725
 2376, 1835, 1409, 1823, 2061
 2377, 1835, 1823, 2063, 1834
 2378, 2059, 2251, 2147, 2324
 2379, 2147, 2289, 2146, 2225
 2380, 2147, 2225, 1661, 2289
 2381, 2216,  971,  932,  972
 2382, 1782, 2284, 1609, 2378
 2383, 1346, 1554, 1917, 1558
 2384, 1284, 1353, 1260, 1606
 2385, 1284, 1325, 1350, 1327
 2386, 1346, 1558, 1917, 1347
 2387, 1369,  105,  106,  273
 2388, 1348, 1607, 1323, 1611
 2389, 1348, 1918, 1611, 1917
 2390, 1607, 1722, 2193, 1608
 2391, 1481, 1485, 1487, 1483
 2392, 1362, 1489, 2264, 1358
 2393, 1689, 1692, 1687, 1690
 2394, 1481, 1483, 1482, 1485
 2395, 1487, 1372, 2206, 2221
 2396, 1362, 1489, 1484, 1491
 2397, 2374,   44,   45,  272
 2398, 1481, 1491, 1490, 1486
 2399, 1482, 1363, 1484,  921
 2400, 2374,  856, 2379,   45
 2401, 1538,  565,  564,  525
 2402, 1468,  604,  565,  605
 2403, 2379,   45,   46,  275
 2404, 2030,  280,  283,  279
 2405, 1306,  280,  279,  276
 2406, 1406, 1457,  414, 1642
 2407, 1861, 1793, 1232, 1242
 2408, 1275, 2380, 1293, 1991
 2409, 1275, 1283, 1276, 1277
 2410, 1293, 2142, 2227, 2094
 2411, 1304,   20,  594,  236
 2412, 1273, 2380, 1992, 2142
 2413, 2008, 1652, 1566, 1653
 2414, 1571, 1570, 1851, 2009
 2415, 1848, 1651, 1571, 1566
 2416, 1397, 1566, 1571, 1568
 2417, 1848,  445, 1850,  406
 2418, 1380, 1331,  276,  104
 2419, 1344, 1339, 1343, 1617
 2420, 1331,  276,  104,  105
 2421, 1619, 2329, 1617, 1618
 2422, 2106, 1550, 1668, 2381
 2423, 1339, 1344, 1340, 1617
 2424, 1617, 2329, 1344, 2382
 2425, 2207, 2033,  366, 2334
 2426, 2316,   46,   47,  278
 2427, 1855,  278,  277,  274
 2428, 1855,  275,  278,  274
 2429, 1504,  276,  273,  277
 2430, 1339, 1617, 1614, 1345
 2431, 2042, 2084, 1434, 2083
 2432, 1428, 1438, 1436, 1429
 2433, 1647,  372,  411,  371
 2434, 1552,  526,  527,  566
 2435, 1307,  370,  371,  410
 2436, 2300, 2301, 2383,  819
 2437, 2029,  281,  284,  280
 2438, 2361, 2212, 2363, 2360
 2439, 1432, 2087, 1433, 2084
 2440, 1809, 1827, 1799,  570
 2441, 1432, 2087, 2315, 2384
 2442, 1432, 2384, 1431, 2301
 2443, 2379,   46,  278,  275
 2444, 2158, 1946, 1873, 1088
 2445, 1221, 2205, 1231, 1768
 2446, 1771, 1773, 1770, 1222
 2447, 1380,  103,  104,  279
 2448, 1229,  617, 1231, 1230
 2449, 1647,  371, 1380,  372
 2450, 1380,  279,  104,  276
 2451, 1912, 2278, 1229, 2170
 2452, 1221, 1774, 1226, 1225
 2453, 2087, 2385,  821, 2315
 2454, 2087, 2047, 2315,  821
 2455, 2276, 2277,  102,  282
 2456, 1432, 2084, 1433, 1434
 2457, 2042, 2087, 2047, 2315
 2458, 2087,  781, 2301, 1433
 2459, 2276,  103,  279,  282
 2460, 2386,   47,   48,  281
 2461, 1332, 1467, 1894, 1598
 2462, 1812,  731,  771,  770
 2463, 1891, 1946, 1466, 1469
 2464, 1822,  493,  492,  453
 2465, 1330, 1338, 1337, 1600
 2466, 2029,  284,  283,  280
 2467, 1856,  280,  277,  281
 2468, 1337, 1334, 1330, 1166
 2469, 1860, 1600, 1466, 1467
 2470, 2387,   48,   49,  284
 2471, 1088, 1873, 1127, 1946
 2472, 1763, 1765, 1878, 2111
 2473, 2166, 2167,  596,  595
 2474, 1471, 1893, 1597, 1922
 2475, 1891, 1329, 1946, 1127
 2476, 1877, 1807, 2113, 2364
 2477, 2228,  487,  526,  486
 2478, 2277,  282,  285,  102
 2479, 1856,  281,  277,  278
 2480, 1770, 2112, 1769, 2116
 2481, 2277,  102,  101,  374
 2482,  768, 2249, 2376, 2112
 2483, 2249, 2376, 2112, 1877
 2484, 1306,  280,  276,  277
 2485, 1770, 2113, 1769, 2112
 2486, 2112, 2115, 2116, 1770
 2487, 1246, 1725, 1612, 1254
 2488, 1640,  282,  283,  286
 2489, 1640,  285,  282,  286
 2490, 2180, 1885, 1726, 2372
 2491, 1784, 1726, 1889, 1790
 2492, 2030,  283,  282,  279
 2493, 2388, 2389,  806,  141
 2494, 1639, 1646, 1302, 1444
 2495, 1782, 2377, 1726, 1786
 2496, 1881, 1726, 1885, 1889
 2497, 1790, 1889, 1886, 1885
 2498, 1726, 1885, 1790, 2390
 2499, 2386,   48,  284,  281
 2500, 1940, 2041, 2048, 1521
 2501, 1735,   49, 2387,  852
 2502, 2041, 1545, 1547, 1546
 2503, 2047, 2038,  822,  783
 2504, 2068, 2092,  851,  890
 2505, 1569,  448,  409,  449
 2506, 1940, 2047, 2086, 2036
 2507, 2047, 2036, 2038,  783
 2508, 1800, 1802, 1832, 1837
 2509, 1904, 1899, 1679, 2137
 2510, 1447, 1448, 2223, 1451
 2511, 1449, 1447, 1934, 1443
 2512, 2027,  286,  283,  287
 2513, 2051, 1461, 1454, 1962
 2514, 2147, 2323, 2060, 2391
 2515, 1874, 2154, 1859, 2152
 2516, 2112, 2376,  768,  767
 2517, 1933, 2223, 1827, 2154
 2518, 1874, 1803, 1684, 1808
 2519, 2089,  301,  300,  297
 2520, 1963,  292,  291,  288
 2521, 2116, 1769, 2114, 2389
 2522, 1810, 2186, 1901, 1813
 2523, 1381,   51, 2288,  850
 2524, 2140, 1758, 1122, 2257
 2525, 2159,  500, 2099, 2221
 2526, 2221, 2159,  501, 1268
 2527, 1643,  289,  288,  285
 2528, 2155, 1451, 2189, 2230
 2529, 1380,  279, 2276,  103
 2530, 1481, 1488, 1491, 1486
 2531, 1639, 1302,  412, 1444
 2532, 1487, 2206, 1483, 2236
 2533, 1372, 2206, 2221, 2159
 2534,  461, 1486,  500, 1490
 2535, 2287,  291, 2333,   99
 2536, 2392,  288,  100,  101
 2537, 1486,  500, 1490, 2221
 2538, 2221, 2159,  500,  501
 2539, 2068,  891,  890,  851
 2540, 1690, 1487, 2221, 1486
 2541, 1735,  287,   49,   50
 2542, 2234,  515,  554, 1385
 2543, 1957, 2205, 1954, 2209
 2544, 1229, 1230, 2170,  618
 2545, 1225, 2205, 2134, 1954
 2546, 1954, 1227, 1225, 2205
 2547, 2205, 1227, 1225, 1221
 2548, 1863, 1389, 1871, 1829
 2549, 1871, 1986, 1025, 2025
 2550, 1863, 1384, 1871, 1389
 2551, 2288,   51,  290,   50
 2552, 1871, 1025, 1986, 1024
 2553, 1735, 2387,   49,  287
 2554, 1871, 1986, 1846, 1024
 2555, 1407,  414, 1457,  415
 2556, 1863, 1879, 1846, 1887
 2557, 1863, 1869, 1384, 2065
 2558, 2179, 1919, 1930, 1918
 2559, 1930, 1918, 1070, 1069
 2560, 1816, 1762, 1814, 2165
 2561, 2333,  294,   98,   99
 2562, 1638, 1639, 1444, 1649
 2563,  759, 2133, 2261, 2130
 2564, 1660,  419,  458,  418
 2565, 1407,  415,  454,  414
 2566, 1647,  411,  410,  371
 2567, 1928, 1919, 1929, 1931
 2568, 1304,  555,  594,   19
 2569, 2132, 2131,  758, 2182
 2570, 1962, 2051, 1461,  295
 2571, 2388, 2389,  141,  693
 2572, 1444,  413,  452,  412
 2573, 2389,  805,  141,  140
 2574, 1696, 2128, 2133, 2183
 2575, 2126, 2128, 2133, 2129
 2576, 1472, 1552, 1553, 1465
 2577, 1964, 1735, 2028, 2068
 2578, 1462, 1600, 1467, 1466
 2579, 2153, 2189, 1465, 1553
 2580, 2089,  301,  297,  298
 2581, 2153, 2155, 2174, 2158
 2582, 1461,  298,  297,  294
 2583, 2013,   98,  294,  297
 2584, 1933, 2262, 1874, 1803
 2585, 1676, 2057, 1021, 1060
 2586, 1641, 2276, 2277,  373
 2587, 1891, 1329, 1600, 1946
 2588, 1860, 1466, 2175, 1467
 2589, 1935, 1937, 1704, 1777
 2590, 1519, 1670, 1983, 1937
 2591, 1671, 1670, 1778, 1777
 2592, 1937, 2167, 1297, 1670
 2593, 1885, 1889, 1886, 1881
 2594, 1452, 1453, 1454, 1962
 2595, 1246, 1247, 2372, 1254
 2596, 1881, 2180, 1885, 1726
 2597, 1730, 1066, 1727, 1105
 2598, 2051,  299,  295,  296
 2599, 2317,  297,  300,   97
 2600, 1881, 1104, 1730, 1889
 2601, 1453, 1405, 2068, 1964
 2602, 1723, 1722, 1607, 1608
 2603, 2194,   53, 1382,  848
 2604, 1783, 1730, 1727, 1105
 2605, 1962, 1965, 1963,  292
 2606, 1409, 2062, 1408, 2069
 2607, 1835, 1833, 2146, 2059
 2608, 1835, 1837, 2058, 2391
 2609, 2061, 1835, 2060, 2391
 2610, 1994,  313,  314,  317
 2611, 2391, 2061, 2062, 2060
 2612, 1449, 1800, 1799, 1824
 2613, 2067,  306,  307,  310
 2614, 1449, 1667, 1822, 1450
 2615, 1409, 1667, 1828, 1402
 2616, 1399, 1407, 1409, 1667
 2617, 1459,  416,  376,  377
 2618, 1660, 1460, 1665,  417
 2619, 1561, 2313, 1563, 1710
 2620, 1203, 1208, 1216, 1634
 2621, 1258, 1259, 1574, 1366
 2622, 2092,  890,  850,  851
 2623, 1732, 1977, 1733,  963
 2624, 1382,   53,  849,  848
 2625, 2050,  887,  848,  888
 2626, 1761, 1814, 1762, 1817
 2627, 2104,  887,  847,  848
 2628, 1269,  887,  927,  926
 2629, 1555, 1557, 1554, 1967
 2630, 1422, 1476, 1477, 1421
 2631, 1815, 1916, 1814, 1969
 2632, 1346, 1351, 1558, 1350
 2633, 1555, 1710, 1561, 1563
 2634, 1372, 2221, 1268, 2159
 2635, 1481, 2221, 1486, 1490
 2636, 1957, 2206, 1372, 2159
 2637, 1957, 1953, 1371, 1483
 2638, 1692, 1754, 1687, 2252
 2639, 2097, 1957, 2219, 2206
 2640, 1820,  555,  595,  594
 2641, 2097, 1754, 2252, 1875
 2642, 2317,   97,   96,  379
 2643, 1481, 1491, 1485, 1484
 2644, 1692, 1733, 1734, 1755
 2645, 1269,  887,  888,  927
 2646, 1692, 2098, 2206, 2236
 2647, 2320,   95,   96,  303
 2648, 1631, 1263,  301, 1262
 2649, 2124,  303,  300,  304
 2650, 1518, 1979, 1524, 1527
 2651, 1263,  302, 2195,  305
 2652, 1518, 1973, 1979, 1527
 2653, 1940, 2036, 2086, 2040
 2654, 1940, 1939, 2037, 1941
 2655, 2050,  848,  849,  888
 2656, 1625,  310,  307,  311
 2657, 2221, 1490,  501,  500
 2658, 1936, 1940, 2039, 1941
 2659, 2393,  805, 2389,  140
 2660, 2041, 2043, 2049, 2044
 2661, 1269, 1864,  927,  888
 2662, 1525, 1546, 1545, 2044
 2663, 2347,  422,  421,  382
 2664, 2066,  303,  306,   95
 2665, 1983,  597,  557,  558
 2666, 2041, 2049, 2048, 1521
 2667, 1436, 1437, 1547, 2255
 2668, 2086, 2083, 2042, 2041
 2669, 2067,  309,  306,  310
 2670, 1506, 1525, 1981, 1517
 2671, 2237,  421,  420,  381
 2672, 1356,  317,  320,  316
 2673, 2394,   92,   93,  312
 2674, 2106, 2272, 2107, 2253
 2675, 1665,  378,  418,  417
 2676, 1240, 2148, 2102, 1237
 2677, 1427, 1428, 1433, 1425
 2678, 1525, 1974, 2044, 1981
 2679, 1264,  846,  886,  885
 2680, 1271, 1456, 1660, 1661
 2681, 2394,  312,   93,  309
 2682, 2041, 2043, 2044, 1546
 2683, 1631, 2321, 2195, 1264
 2684, 2155, 1447, 1451, 2203
 2685, 1553, 2190, 2155, 2224
 2686,  301, 1631,  304,  305
 2687, 2161, 1393, 2216, 2203
 2688, 1442, 1393, 2217, 2203
 2689, 1442, 2342, 1646, 2216
 2690, 1440, 1644, 1649, 1667
 2691, 2194, 2104, 1264,  847
 2692, 1628,  844, 2395,  845
 2693, 1472, 2190, 2215, 2155
 2694, 2013, 1460, 1459,  377
 2695, 1440, 1449, 1450, 1667
 2696, 1295,  232,  236,  235
 2697, 1442, 1451, 2217, 1445
 2698, 1630, 1262, 1266, 1976
 2699, 2290, 1659, 2245, 1736
 2700, 1732, 1977, 1736, 1733
 2701, 1734, 1977, 2245, 1711
 2702, 1804, 1766, 2125, 1751
 2703, 2326,  312,  309,  313
 2704, 1689, 1693, 1691, 1694
 2705, 1734, 1755, 1733, 1977
 2706, 2264,  383,  384,  423
 2707, 1657,  314,   58,   59
 2708, 1691, 1487, 1692, 1690
 2709, 2396,  315,   92,  312
 2710, 1232, 1236, 1716,  352
 2711, 1232, 1236,  352, 2397
 2712, 2214, 2398, 2362, 1888
 2713, 2214, 2362, 2398, 2360
 2714, 1484,  883,  922,  882
 2715, 1769,  694, 2389,  693
 2716, 1631,  308,  307,  304
 2717, 2399,  842,  841,   60
 2718, 1573,  917,  918,  957
 2719, 1627,  459, 1694, 1693
 2720, 1861, 1793, 1242, 1241
 2721, 2398, 2200, 1888, 2214
 2722, 2400,   57,  844,   58
 2723, 1529, 1881, 1534, 1532
 2724, 1375,  671, 1377, 1702
 2725, 2320, 2124, 1665, 1664
 2726, 1375,  670, 1528,  631
 2727, 1344, 2335, 1998, 1781
 2728, 1272, 1278, 1339, 1340
 2729, 1633, 1205, 1956, 2170
 2730, 2207, 1617, 1345, 1621
 2731, 1971, 1184, 1187, 1183
 2732, 2335, 1341,  259, 1896
 2733, 2346,  311,  314,  310
 2734, 1665,  378,  379,  418
 2735, 1272, 1273, 1340, 1342
 2736, 1896, 1344, 2335, 1341
 2737, 1627,  459,  420,  460
 2738, 1340, 1998, 1344, 1999
 2739, 1771, 1221, 2134, 1774
 2740, 1771, 2111, 1878, 2135
 2741, 1993,  313,  316,  312
 2742, 2401, 2219, 2097, 1231
 2743, 1763, 1788, 1804, 2213
 2744, 2097, 2401, 1231, 2252
 2745, 1367, 2264, 1637,  423
 2746, 1875, 1756, 1763, 2111
 2747, 1754, 1789, 2213, 2245
 2748, 2396,   91, 2265,  384
 2749, 2400,  311, 2395,   57
 2750, 2008, 1619, 2208, 1622
 2751, 1849, 2007, 2005, 1780
 2752, 2208, 2329, 2350, 1781
 2753, 2326, 2237, 2303, 2394
 2754, 2326,  310,  313,  309
 2755, 2035,  444, 1622,  405
 2756, 1662,  419, 1664,  380
 2757, 1619, 2350, 2008, 2208
 2758, 1619, 2254, 2350, 2329
 2759, 1313, 2121, 1715, 1989
 2760, 1971, 1187, 1186, 1183
 2761, 2163, 1831,  472, 1314
 2762, 1664,  419,  379,  380
 2763, 1311, 2123, 1310, 2122
 2764, 2081, 2122, 2163, 2268
 2765, 1390, 1389, 1792, 1384
 2766, 1411,  346, 2123, 2270
 2767, 1411, 2270, 2267, 1989
 2768, 1311, 2081, 1411, 2123
 2769, 1411, 2082, 2267, 2270
 2770, 1637,  423, 2264,  384
 2771, 1301, 1309, 1391, 1646
 2772, 1854, 2402, 1398, 1858
 2773, 1305, 1854, 1392, 1858
 2774, 1993,  316,  315,  312
 2775, 2396,  383, 2394,   92
 2776, 1572,  274, 1855, 1504
 2777, 1572, 1855,  274, 2031
 2778, 2318,   63,   64,  329
 2779, 2243,  838,  839,  878
 2780, 1305, 1309, 1306, 1856
 2781, 1885, 2372, 2090, 2377
 2782, 2400,  314,  311,   58
 2783, 1544, 1885, 1530, 1886
 2784,  753, 2390, 1886, 1530
 2785, 2066,  303, 2124,  304
 2786, 1624, 2066, 1627, 1662
 2787, 1885, 1530, 2090, 1528
 2788, 2241, 2240,  328, 1417
 2789, 1356,  320,  319,  316
 2790, 2066,  304,  307,  303
 2791, 1357,  322,  318,  319
 2792, 1629,  922,  883,  923
 2793, 1663, 1666, 1662, 1693
 2794, 2077, 2011, 2022, 2078
 2795, 1424, 2077, 2080, 2079
 2796, 1980, 1700, 1826, 1320
 2797, 2081, 2080, 2075, 2122
 2798, 1424, 2080,  430, 2079
 2799, 2264,  461,  422,  462
 2800, 1415,  467,  466,  427
 2801, 2080, 2021,  470, 2268
 2802, 1994,  313,  317,  316
 2803, 2080,  392, 2122,  431
 2804, 2080, 2122,  392, 2079
 2805, 2403,   89,   88,  387
 2806, 2080,  432, 2122, 2268
 2807, 2080, 2122,  432,  431
 2808, 1421, 2077, 2011, 2022
 2809, 2011, 2014, 2078,  334
 2810, 2015,  322, 2017,  325
 2811, 1418, 1613, 2011, 1601
 2812, 1424, 2080, 2021,  430
 2813, 2081, 2271, 2082, 2074
 2814, 2077, 2022, 2271, 2404
 2815, 2011, 2022, 1601, 1613
 2816, 1655, 1656, 1484,  882
 2817, 2237,  381,  382,  421
 2818, 2347,  422,  382,  383
 2819, 1413, 1419, 1423, 1581
 2820, 1579, 2242, 2243, 2241
 2821, 2264,  422,  383,  423
 2822, 2240, 1577, 2242, 2015
 2823, 1577, 2405, 1575, 2243
 2824, 1623, 1976, 1629, 1628
 2825, 1360, 1359, 1575, 2405
 2826, 2242, 2015,  325, 2240
 2827, 1626, 2346,  310, 1625
 2828, 1626, 1491, 1656, 1628
 2829, 2406,   61,  841,  840
 2830, 1356,  318,  315,  319
 2831, 1626, 2263, 2238, 2326
 2832, 2399,  320,  317,   60
 2833, 2263, 2238, 2326, 2347
 2834, 2015,  322,  325,  321
 2835, 1486,  500,  460,  461
 2836, 2263, 2264, 2238, 2347
 2837, 2265, 1993, 2396, 1637
 2838, 1362, 1363, 1489, 1358
 2839, 2407,  335,  332,   65
 2840, 2263, 2346, 1656, 1994
 2841, 2263, 1491, 2238, 2264
 2842, 1611, 1327, 1068, 1610
 2843, 1691, 1487, 1488, 1485
 2844, 1484, 1491, 1656, 1362
 2845, 2396,  315, 2265,   91
 2846, 1362, 1484, 1489, 1363
 2847, 2050,  887, 2104,  848
 2848, 1627,  420,  421,  460
 2849, 1482, 1372, 1371, 1483
 2850, 2050, 1454, 1270, 1269
 2851, 1442, 1646, 1444, 1302
 2852,  708, 2090, 1702,  669
 2853, 1648, 1649, 1748, 1646
 2854, 1301, 1639, 1646, 1302
 2855, 2161, 2201, 2203, 2216
 2856, 1420, 1474, 1480, 1476
 2857, 1648, 2030, 2029, 2027
 2858, 1357,  321,  318,  322
 2859, 1308, 1395, 1397, 1569
 2860, 1639, 2030, 1641, 1647
 2861, 2047, 2036, 2085, 2086
 2862, 1417,  330, 2408,  327
 2863, 1267,  464,  503,  463
 2864, 1940, 2039, 1941, 2037
 2865, 1995,  323,  322,  319
 2866, 1940, 2036, 2039, 2037
 2867, 2409,  326,  323,   62
 2868, 1940, 2047, 2046, 2041
 2869, 1409, 1822, 1407, 1410
 2870, 1365, 1361,  841,  880
 2871, 1401, 1402, 1400, 1746
 2872, 1399, 1667, 1401, 1407
 2873, 1440, 1649, 1441, 1667
 2874, 2405,  878,  839,  879
 2875, 1409, 1402, 2061, 2069
 2876, 2242,  328,  325,  329
 2877, 1576, 1256, 1414, 1258
 2878, 1230,  617,  578,  618
 2879, 1835, 2061, 1823, 1837
 2880, 1449, 1824, 1448, 1822
 2881, 1933, 2155, 1447, 2223
 2882, 1440, 1445, 1448, 1451
 2883, 1519, 1238, 1670, 1677
 2884, 1518, 2044, 1522, 1981
 2885, 2240,  325,  328,  324
 2886, 1628, 1626, 1491, 1623
 2887, 1506, 1522, 1517, 1981
 2888, 1506, 1523, 1975, 1522
 2889, 2056, 2055, 1870, 2057
 2890, 2409, 2406,  840,   61
 2891, 1515, 2055, 1514, 2117
 2892, 2318, 2241, 2319,  329
 2893, 2017,  325,  322,  326
 2894, 2410,  347,  344,   69
 2895, 2318,  838,  837,   64
 2896, 2056, 2055, 2117, 1870
 2897, 2241,  332,  328,  329
 2898, 2408,   87,  389,  388
 2899, 1576,  386,  387,  426
 2900, 2240, 2242,  328,  325
 2901, 1704, 1298, 1296, 1706
 2902, 1299, 1300,  238,  237
 2903, 1776, 1299, 1297, 1777
 2904, 1704, 1937, 1936, 2166
 2905, 1704, 2166, 2411, 1296
 2906, 1419,  334,  330,  331
 2907, 1691, 1485, 1733, 2236
 2908, 2014,  335,  334,  331
 2909, 2240,  327,  324,  328
 2910, 2319,  329,  326,   63
 2911, 1273, 1340, 1636, 1278
 2912, 2095, 1586,  944, 1839
 2913, 1590, 1586, 2095, 1839
 2914, 2319,   63,  326,   62
 2915, 2403,   89,  387,  386
 2916, 1591, 1838, 2096,  219
 2917, 2408,  330, 2412,   86
 2918, 1591, 1588,  223, 1286
 2919, 1584, 1290, 1588, 1591
 2920, 1584, 1583, 2095, 1586
 2921, 1714, 2313, 1573, 2314
 2922, 2413,  387, 2403,   88
 2923, 1258, 2325, 1576,  425
 2924, 2118, 1279, 1695, 2149
 2925, 1584, 1282, 2095, 1583
 2926, 2412,   86,  330,  333
 2927, 1513, 1279, 1345, 1516
 2928, 2142, 2380, 1293, 1275
 2929, 2311,  505,  544,  504
 2930, 1417,  327,  328,  331
 2931, 1340, 2382, 1617, 1344
 2932, 1339, 1614, 1278, 1279
 2933, 1272, 1339, 1279, 1280
 2934, 1273, 1340, 1342, 1990
 2935, 1356, 1637, 2265, 1357
 2936, 1356, 1994, 1365, 2399
 2937, 1655, 1362, 1365, 1363
 2938, 1356, 1358, 1993, 1637
 2939, 1356, 1362, 1365, 1994
 2940, 2407,   65,   64,  837
 2941, 2325, 1637, 1258, 1357
 2942, 1358, 1367, 2264, 1637
 2943, 1356, 1994,  316, 1993
 2944, 2241,  331,  328,  332
 2945, 1221, 1229, 1224, 1223
 2946, 1379,  513,  512,  473
 2947, 1422,  467,  428,  468
 2948, 1229, 1230,  618,  617
 2949, 2412,  333,   85,   86
 2950, 2097, 2205, 2209, 1768
 2951, 2205, 1768, 2134, 2209
 2952, 1257, 1573, 1414, 1574
 2953, 1952, 1911, 1207, 1075
 2954, 2414,  339,  342,   83
 2955, 1604,  336,   85,  333
 2956, 1360, 1574, 1575, 1359
 2957, 2240, 2413, 1576, 2403
 2958, 1912, 2170, 1950, 2278
 2959, 1601,  837,  876,  836
 2960, 1264,  885, 2359,  846
 2961, 2097, 1957, 2375, 2209
 2962, 1221, 1223, 1768, 1231
 2963, 1950, 2170, 1912, 1205
 2964, 2415,  345,   82,  342
 2965, 1319, 2232,  712,  164
 2966, 2075,  343,  342,  339
 2967, 1633,  619,  580,  620
 2968, 1319, 1533, 1320, 2232
 2969, 2078,  338,  334,  335
 2970, 1540, 1980, 1319, 1320
 2971, 2372,  669,  668,  629
 2972, 1319,  163, 1404, 1140
 2973,  710, 1884, 1701, 1825
 2974, 2014,  332,  335,  331
 2975, 2398, 2416, 1190, 2417
 2976, 1375,  632,  592,  593
 2977, 1304,  516, 2148,  555
 2978, 1421, 2011, 1613, 2022
 2979, 2372, 1985, 1528,  630
 2980, 1953,  997, 1036, 1951
 2981, 2418,  834,  833,   68
 2982, 2242, 2319,  329,  326
 2983, 2396, 1637,  384, 2265
 2984, 2199,  436, 1972, 1888
 2985, 1281, 1275, 1276, 2143
 2986, 1423,  429,  389,  390
 2987,  906,  907,  867, 1947
 2988, 1458, 1459,  415, 1457
 2989, 1452, 1459, 1458, 1457
 2990, 1410, 1458, 1456, 2225
 2991, 1576,  426,  425,  386
 2992, 1407, 1458,  454,  415
 2993, 2074,  341,  340,  337
 2994, 1458, 1459, 1456,  416
 2995, 1974, 2381, 2419,  522
 2996, 1493, 1495, 1737, 2256
 2997, 2254, 1654,  976, 2229
 2998, 2074,  339,  336,  340
 2999, 1619, 2254, 1652, 2350
 3000, 2109, 1651,  446, 1850
 3001, 1711, 1945, 2349, 1003
 3002, 2324, 2349, 1945, 1004
 3003, 2245, 2349, 1711, 1945
 3004, 1977, 1659, 1945, 1658
 3005, 1755, 1711, 1713, 1041
 3006, 2349, 1003, 1945, 1004
 3007, 2080,  430,  431,  470
 3008, 2420, 2127, 2128, 2132
 3009, 1604,  390,   85,  391
 3010, 2420, 2183,  798, 2132
 3011, 2421,  338,  335,   66
 3012, 2420, 2132,  798,  797
 3013, 2420, 1703,  701,  133
 3014, 2422,   70,   71,  350
 3015, 2075,  340,  343,  339
 3016, 2214, 2360, 2397, 2032
 3017, 2082, 2123,  343, 2270
 3018, 1861, 1888, 2214, 2211
 3019, 2398, 2397, 2360,  355
 3020, 1924, 1914, 2278, 1925
 3021, 1413, 1419, 1581, 1417
 3022, 1924, 2278, 1926, 1925
 3023, 2423,   66,   67,  338
 3024, 1924, 1925,  803,  802
 3025, 1924,  138, 1926,  696
 3026, 2107, 1016, 1511, 1017
 3027, 2107, 1548, 2280, 1056
 3028, 2106, 2419, 2071, 1550
 3029, 2421,   66,  335,   65
 3030, 1618,  939, 2329, 2382
 3031, 1978, 1199, 1403, 1980
 3032, 1962, 1964,  292, 1963
 3033, 1424, 2011, 2077, 1605
 3034, 2270,  346,  343,  347
 3035, 1964, 1963,  289,  292
 3036, 1413, 1417, 1581, 1578
 3037, 2162, 2341,  912,  911
 3038, 1453, 1400, 2092, 2068
 3039, 1964,  290, 1735, 2288
 3040, 1381, 2288, 1964, 2092
 3041, 1964,  289, 2028,  290
 3042, 2270,  347,  343,  344
 3043, 2071, 2281, 2107, 2280
 3044, 1974, 1668, 2381,  522
 3045, 2110, 2381,  484,  523
 3046, 2414,  342,   82,   83
 3047, 2106, 1498, 2272, 1494
 3048, 2106, 2109, 2110, 2381
 3049, 1465,  567, 2175,  606
 3050, 2075, 2414,  392, 2076
 3051, 2100, 2228, 2160, 2204
 3052,  644, 1462, 1467, 1465
 3053, 1474, 1564, 1479, 1475
 3054, 2228, 2204,  487, 2160
 3055, 2296,  348,  351,   80
 3056, 2424, 2377, 2390, 2090
 3057, 2424, 2425,  128,  793
 3058, 2418,   67,   68,  341
 3059, 2082,  343,  340,  344
 3060, 2424,  127, 2426,  792
 3061, 2424, 2377,  707,  706
 3062, 2346, 2400, 1628, 1656
 3063, 2023, 2019,  952, 1742
 3064, 2346,  311, 2400,  314
 3065, 1657,   58, 2400,  843
 3066, 2268,  470,  431,  471
 3067, 2081, 2163, 2164, 2268
 3068, 2418,   68,  344,  341
 3069, 1598,  683, 1464,  644
 3070, 1598, 1865, 2427, 1894
 3071,  644, 1598, 1467, 1464
 3072, 1793, 1234, 1241, 1379
 3073, 2428, 2415, 1312,  345
 3074, 2414,  342, 2415,   82
 3075, 1598, 1464,  683, 2429
 3076, 1598, 2429, 2427, 1599
 3077, 2430, 1775, 1942, 1941
 3078, 2430, 1942,  675,  674
 3079, 2430,  159, 1775,  824
 3080, 1924, 1914, 1961,  697
 3081, 1717,  350,  349,  346
 3082, 1914, 1950, 1209,  659
 3083, 2123,  345,  342,  346
 3084, 1206, 1914, 1915, 2357
 3085, 1914,  659, 1915,  698
 3086, 1914,  698, 1915, 1961
 3087, 1716,  350,  353,  349
 3088, 2081, 2267, 2271, 2341
 3089, 1739,  950, 2162, 1743
 3090, 1795, 2162,  950,  911
 3091, 1797, 2010, 2121,  910
 3092, 1797, 1739, 1796,  949
 3093, 1532, 2171, 1063, 1102
 3094, 2024,  509,  508,  469
 3095, 1285, 1351, 2120, 1353
 3096, 1421, 2023, 2022, 1613
 3097, 1475, 1580, 2313,  955
 3098, 1476, 1422,  468, 1480
 3099, 2234, 1181, 1180,  214
 3100, 1478, 1420, 1421, 1476
 3101, 2296, 2428, 1244, 1312
 3102, 2023, 1613,  914, 2022
 3103, 2064, 1531, 1702, 1700
 3104, 1416, 1418, 1579, 1603
 3105, 2264, 1637,  384, 2396
 3106, 1993, 2396,  312,  315
 3107, 2320,   95, 2066,  380
 3108, 2320,  380, 2066, 1664
 3109, 1717,  347,  350,  346
 3110, 2431,   79,   78,  397
 3111, 2320,  303, 2066,   95
 3112, 2320, 2066,  303, 2124
 3113, 2320,   96, 2317,  300
 3114, 2398, 2397,  354, 2200
 3115, 2039, 2036,  745,  784
 3116, 2016,  350,  347,   70
 3117, 2432, 2433,  746,  747
 3118, 2432, 2297, 1175,  198
 3119, 1976, 1262, 2359, 1623
 3120, 1606,  588,  628,  627
 3121, 1623, 2359, 1628, 1625
 3122, 1624, 1626, 2067, 1625
 3123, 2064, 1531, 1866, 1868
 3124, 1647, 1303, 1307,  410
 3125, 1647, 1307,  371,  410
 3126, 1647, 1380,  371, 1307
 3127, 2254, 2229,  976, 2272
 3128, 2052, 1846, 1728, 1729
 3129, 1498, 2110, 2109, 1497
 3130, 1236, 1716,  352,  349
 3131, 2431,   79,  351,  354
 3132, 2296, 2431,   79,  351
 3133, 2072, 2381,  523, 2419
 3134, 1492, 2229, 1498, 1494
 3135, 2434,  356,  353,   72
 3136, 1498, 2254, 2272, 2229
 3137, 1467, 1598,  646, 1894
 3138, 1244,  434,  433,  394
 3139, 2427, 1894, 1865, 1772
 3140, 1830,  868,  869,  908
 3141, 2427, 1772,  814,  149
 3142, 1232, 2212, 2214, 2032
 3143, 1716,  353,  352,  349
 3144, 2427, 2429,  684,  150
 3145, 2427, 1865,  815,  814
 3146, 1911, 1225, 1952, 1956
 3147, 2026,  551,  512,  552
 3148, 1581, 2408,  388, 1578
 3149, 1581, 1578,  388,  427
 3150, 1413, 1415,  428, 1422
 3151, 1403, 1404, 1980, 1202
 3152, 1581, 2408, 2412,  389
 3153, 2327, 1385,  554,  553
 3154, 2428, 1312, 1310, 1244
 3155, 2397,  355,  354,  351
 3156, 2296,  395, 2428,   80
 3157, 2428,  345, 1312,  348
 3158, 1314,  473,  472,  433
 3159, 1233,  395, 2296,  396
 3160, 2121, 1989,  872,  871
 3161, 2398,  358,  354,  355
 3162, 1243, 2431, 2397, 2200
 3163, 2431, 2397,  354,  351
 3164, 2431, 2200,   78,  354
 3165, 2225, 1456,  456,  455
 3166, 1978, 2064, 1195, 1198
 3167, 2360,  355, 2032,  356
 3168, 2225,  456,  495,  455
 3169, 1834, 1824,  532, 1799
 3170, 1320, 1535, 1701,  751
 3171, 2435, 1188, 1189,   75
 3172, 2146,  495, 2225, 2289
 3173, 1800, 1834, 1799, 1824
 3174, 1419, 1581, 2408, 2412
 3175, 2032,  355,  352,  356
 3176, 2363,  356,   72,   73
 3177,  750, 1321, 1826, 1320
 3178, 1909,  213, 1887,  214
 3179, 2026,  512,  513,  552
 3180, 2242, 2240,  328, 2241
 3181, 2015, 1577, 2242, 2017
 3182, 1419, 1417,  330, 2408
 3183, 1414, 1579, 1578, 1577
 3184, 1909, 2234, 1387, 1180
 3185, 1417,  327, 2408, 2413
 3186, 1417, 2408, 1578, 2413
 3187, 2309, 2311, 2312, 2198
 3188, 1818, 1216, 1843, 2151
 3189, 1792, 1793, 1388, 1390
 3190, 1841, 1959,  996, 2220
 3191, 2311,  504, 2312, 2198
 3192, 2370, 2369,  108,  367
 3193, 2200,  357,   77,   78
 3194, 1851, 2370, 2367,  368
 3195, 2370, 2367,  368,  107
 3196, 2398, 2360,  358,  355
 3197, 2370, 1852,  267,  264
 3198, 1948,  867,  208,  828
 3199, 2398,  357,  354,  358
 3200, 2029, 1856, 1857, 2316
 3201, 1306, 1309, 2029, 1856
 3202, 2027,  283, 2029,  284
 3203, 2210, 1947, 2212, 1830
 3204, 2029,  281, 1856, 2316
 3205, 1879,  945,  946,  985
 3206, 2027, 2029, 2386,  284
 3207,  804, 1228,  764, 1926
 3208, 2360, 2363,  359,  356
 3209, 2436, 1948, 1949, 2361
 3210, 2335, 2298, 1999, 1998
 3211, 1349, 1379, 1388, 1241
 3212, 2298, 1999, 1998, 1997
 3213, 1986, 1063, 1728, 1024
 3214, 2298, 1999,  257,  260
 3215, 2298, 2373,   40,  861
 3216, 1841, 2220,  996, 2314
 3217, 2437, 1707,  748, 1705
 3218, 2170,  618,  579,  619
 3219, 2200,  398,  397,   78
 3220, 2437, 1705,  748,  749
 3221, 2437, 2438, 1177,  200
 3222, 2331, 2439, 1170,  193
 3223, 2331, 2332,  194, 1171
 3224, 2417,    6,  116,   77
 3225, 2436,    5,   73,  828
 3226, 2436,   74,  359,    5
 3227, 2331, 1425, 1171, 1170
 3228, 2440, 1718, 1316, 1720
 3229, 2440, 1315, 1146,  169
 3230, 2440, 2441,  170, 1147
 3231, 2440, 1718, 1147, 1146
 3232, 2442, 2248, 1217, 2247
 3233, 2442, 2376, 2248, 2247
 3234, 2442, 2248,  729,  730
 3235, 1292, 2282, 1291, 2328
 3236, 2442, 2443, 1158,  181
 3237, 1918, 1917, 1348, 1815
 3238, 1292, 2282, 2328,  243
 3239, 1281, 1288, 1292, 2143
 3240, 1292,  243,  246,  115
 3241, 1287,  438,  399,  439
 3242, 1292,  115,  114,  361
 3243, 1917, 1559, 1815, 1918
 3244, 1559, 1070, 1918, 1917
 3245, 1928, 1929, 1110, 1931
 3246, 1919, 1814, 1920, 2129
 3247, 1565, 2006,  897,  896
 3248, 1696, 2133, 2235, 2183
 3249, 2366,  111,  112,  255
 3250, 2144,  362,  402,  401
 3251, 1996, 1991,  903, 2294
 3252, 1277,  401, 2144,  402
 3253, 2299,  113, 2286,  362
 3254, 1928, 2261, 1149, 1150
 3255, 2339, 1286, 1291,  221
 3256, 1222, 1767, 1768, 1223
 3257, 2366, 2286,  112,  363
 3258, 1763, 1764, 1878, 1765
 3259, 2135, 2444, 2445, 1773
 3260, 1763, 1771, 2111, 1878
 3261, 2299,  249, 2286,  113
 3262, 2334,  261,  110,  258
 3263, 2366,  363, 2144, 2286
 3264, 1771, 2135, 1773, 1774
 3265, 2334,  109,  110,  261
 3266, 1341,  256,  259,  255
 3267, 1280,  403,  402,  363
 3268, 2135, 1774, 2444, 1773
 3269, 1573, 1580,  956, 2313
 3270, 1825, 1884,  123,  710
 3271, 2365,  364, 2366,  111
 3272, 1825,  202, 1826,  789
 3273, 1833, 2145, 1903, 1801
 3274, 1684, 1809, 1859, 1808
 3275, 1900, 2137, 1906, 1902
 3276, 2008, 1652, 1653, 2350
 3277, 2365,  258, 2334,  110
 3278, 1823, 1834, 1822, 2063
 3279, 2370,  107,  108,  267
 3280,  446,  407, 1651,  447
 3281, 2005,  269,  265,  266
 3282, 1853,  367,  368,  407
 3283, 2367,  107,  106,  369
 3284, 2009,  271,  270,  267
 3285, 1448, 1827, 2223,  530
 3286, 1954, 2209, 2134, 1077
 3287, 2370, 1852, 2004, 1853
 3288, 1851,  368,  408,  407
 3289, 1953, 1954, 1038, 2209
 3290, 1957, 1953, 2209, 1954
 3291, 1398, 1566, 1567, 1397
 3292, 2298,   40, 2373,  260
 3293, 1572,  274,  273,  270
 3294, 1398, 1392,  895,  934
 3295, 1951, 1954, 1956, 1952
 3296, 2360, 2435, 2361, 2362
 3297, 2367,  270, 1369,  106
 3298, 1570,  408,  369,  409
 3299, 2435, 2436, 1188,   74
 3300, 2416, 1189, 2435, 2362
 3301, 1643,  289,  285,  286
 3302, 2360, 2435,  358,  359
 3303, 2392,  288,  101,  285
 3304, 2435, 2361, 1189, 1188
 3305, 1648, 1748, 1649, 1746
 3306, 2416,   75, 2435, 1189
 3307, 2195, 2321,   55,  846
 3308, 1345,  443,  442,  403
 3309, 1643, 2392,  285,  288
 3310, 1638, 1444,  412,  413
 3311, 2287,   99,  100,  291
 3312, 2287,  288,  291,  100
 3313, 2402,  856,  857,  896
 3314, 2194, 2195,   54,  847
 3315, 1263, 1631, 2195, 1264
 3316, 1855, 1504,  274,  277
 3317, 2195, 1264,  846,  847
 3318, 2322, 2231, 1143,  166
 3319, 2392,  375,  374,  101
 3320, 2228,  526,  525,  486
 3321, 2322, 1889, 1886, 1790
 3322, 1404, 1321, 1980, 1202
 3323, 2322, 1326,  715,  167
 3324, 2322, 1143, 1889, 1144
 3325, 1248, 1745, 2192, 2025
 3326, 1791, 1794, 1796, 1792
 3327, 1641,  372,  412,  411
 3328, 1791, 1744, 1739, 1795
 3329, 2124,  301,  304,  300
 3330, 1745, 2025, 1026, 2192
 3331, 1459, 2287,  415, 1457
 3332, 1407, 1410, 1458, 1457
 3333, 1284, 1351, 1346, 1350
 3334, 2013, 2333, 1459, 1461
 3335, 1453, 1457, 1406, 1963
 3336, 2013, 2333,   98,  377
 3337, 2333,  294,   99,  291
 3338, 1184, 1180, 1971, 1970
 3339, 2444,  179, 2445,  727
 3340, 1957, 1483, 1372, 2206
 3341, 2320, 1664, 1665,  379
 3342, 2347,  312, 1993, 2396
 3343, 2135, 1156, 2444, 1774
 3344, 1660, 1665,  418,  417
 3345, 2013, 1461, 2089,  297
 3346, 2444, 2012, 1155,  178
 3347, 2394,   93, 2303,  309
 3348, 2303,  306,  309,   94
 3349, 2444, 1773,  726,  727
 3350, 2253, 2071, 2107, 2106
 3351, 2106, 2072, 2419, 2381
 3352, 1509, 1620, 1619, 2108
 3353, 1495, 2256,  563, 1737
 3354, 1622,  445, 2108,  444
 3355, 1668, 2108,  483, 1620
 3356, 1867, 2064, 1375, 1376
 3357, 2346,  314,  313,  310
 3358, 1403, 1202, 1980, 1199
 3359, 2396,   92,  384,  383
 3360, 1984, 2065, 1376, 2327
 3361, 1988, 2327, 1375,  592
 3362, 1248, 2192, 1745, 1731
 3363, 1658,  925,  886,  926
 3364, 2265,   90,   91,  318
 3365, 1246, 1248, 1987, 1247
 3366, 2265,  318,   91,  315
 3367, 1265, 1666, 1659, 1661
 3368, 1375, 1984, 1376, 2327
 3369, 2446,   89,  386,   90
 3370, 2446,  321,   90,  318
 3371, 1637, 2265, 2446,  385
 3372, 1356,  319,  315,  316
 3373, 1896, 2365, 1341,  258
 3374, 1363,  881,  882,  921
 3375, 2365,  111, 2366,  255
 3376, 2403,  321,  324,   89
 3377, 1357, 2446, 2015, 2325
 3378, 2396,   92,   91,  384
 3379, 2365,  110, 2334,  365
 3380, 2017,  326,  322,  323
 3381, 1361,  880,  840,  841
 3382, 2413,   87,   88,  327
 3383, 2413,  324,  327,   88
 3384, 2015,  325,  324,  321
 3385, 2365, 1343,  364,  365
 3386, 2207, 1896, 2334, 1343
 3387, 2033, 2369,  261, 2004
 3388, 2408,  327,  330,   87
 3389, 2334, 2369,  366,  109
 3390, 2409,   62,  840,  839
 3391, 1417,  330,  327,  331
 3392, 2395,   56, 2321,  845
 3393, 1896, 2334,  258,  261
 3394, 1604, 2076,  391,   84
 3395, 2325,  425,  424,  385
 3396, 2013, 1459, 1460, 1461
 3397, 1419, 1418, 2014, 1417
 3398, 1365,  841,  842,  881
 3399, 2013, 1461, 1460, 2089
 3400, 1419, 2412, 2408,  330
 3401, 2162,  951,  911,  912
 3402, 2076,  336,  339,   84
 3403, 2074,  337,  340,  336
 3404, 1579, 1582, 1602, 2243
 3405, 2076,   84,  392,  391
 3406, 2013, 2317,  378,   97
 3407, 2013, 1461,  297,  294
 3408, 1424,  390, 1604,  391
 3409, 1358, 1574, 1359, 2002
 3410, 2408,   87,   86,  389
 3411, 2078,  337,  334,  338
 3412, 2003,  919,  920,  959
 3413, 2447, 2234,  215,    7
 3414, 2447, 1376, 2065, 2327
 3415, 2082,  341,  344,  340
 3416, 1744, 1791, 1831, 2163
 3417, 2447,    7, 1191,  120
 3418, 2447,  120, 1376,  593
 3419, 1624, 1262, 1631, 2124
 3420,  304, 2066,  307, 1624
 3421, 2066, 1662, 1664,  380
 3422, 1312,  349,  345,  346
 3423, 2428,  348,   81,  345
 3424, 2428,   80,   81,  348
 3425, 2410,   69,  833,  832
 3426, 2066, 2067,  306,  307
 3427, 2123,  346,  342,  343
 3428, 2320, 2066, 2124, 1664
 3429, 2076,   84,   83,  392
 3430, 2079,  430,  391,  431
 3431, 2122, 2163, 2268,  432
 3432, 2122,  432,  431,  392
 3433, 1275, 2142, 1273, 1274
 3434, 1715,  831,  832,  871
 3435, 1273, 1274,  253, 1342
 3436, 1274, 2142, 1992,  250
 3437, 2267,  834,  873,  833
 3438, 1234,  473,  434,  474
 3439, 2415,   82,   81,  394
 3440, 1990,  254, 1992, 2293
 3441, 1243, 2431, 2296, 1236
 3442, 1990, 1992,  254,  253
 3443, 1311, 2163, 2122,  432
 3444, 2339, 2282,  360,   14
 3445,  515, 1386, 1387, 1970
 3446, 2200,   78,  354,  357
 3447, 2339, 1291,  218,  221
 3448, 2339, 2233,   15,  399
 3449, 2296,  395,   80,  396
 3450, 2032,  353,  356,  352
 3451, 2360,  355, 2397, 2032
 3452,  398, 2417, 2200, 2199
 3453, 2416, 2360, 2362, 2435
 3454, 2417,    6,   76, 1190
 3455, 2417,   76,   77,  357
 3456, 1288, 1292, 2339, 1291
 3457, 2416,  358,   75,  357
 3458, 2431,  396,   79,  397
 3459, 2448, 2449,  744, 2085
 3460, 2086, 2449, 2448, 2085
 3461, 2448, 2449, 1173,  196
 3462, 1540, 1532, 1102, 2171
 3463, 2036, 2040, 2297, 2448
 3464, 2416,   75,   76,  357
 3465, 2448, 2040, 2297, 1174
 3466, 1073, 1845, 1212, 1034
 3467, 2448,  196, 1173,  197
 3468, 2448, 2297,  745,  197
 3469, 2199,  398,  117,  437
 3470, 1295,  594, 1820, 2103
 3471, 1294, 2273, 2344, 2103
 3472, 1604,   85,   84,  391
 3473, 1287, 2233,  399,  438
 3474, 2273,  239, 2344,   21
 3475, 1294, 1295, 2344,  236
 3476, 2123, 2414,  342, 2415
 3477, 1992,  251,  254,  250
 3478, 1287,  439,  478,  438
 3479, 2207, 1343,  404, 1345
 3480, 2344,  594, 2103,  633
 3481, 1334,  189, 2450,  737
 3482, 1591, 2096, 2095, 1289
 3483, 1998,  900,  861,  901
 3484, 1340, 1636, 1614, 2382
 3485, 1334, 2450,  189, 1166
 3486, 2366, 1342,  252, 2286
 3487, 1676, 1021, 1022, 1061
 3488, 1590,  222,  226,  225
 3489, 1334, 2450, 1166, 1337
 3490, 2366,  112,  364,  363
 3491, 1272, 2144, 1280,  402
 3492, 2229, 1014,  975, 1015
 3493, 2144,  362,  363,  402
 3494, 2366, 2144,  363, 1280
 3495, 2335, 1999, 2298,  260
 3496, 2450,  190, 2451,  738
 3497, 1283,  440, 1277, 2149
 3498, 1279,  442, 1695,  441
 3499, 1999,  260,  259,  256
 3500, 1975,  520,  519,  480
 3501, 1344, 2329, 1781, 2382
 3502, 1621,  443,  404,  444
 3503, 1415, 1473, 1714, 1593
 3504, 1415,  466, 1256,  427
 3505, 2207,  405,  404,  365
 3506, 1414, 1577, 1575, 1582
 3507, 1575, 1359,  918,  879
 3508, 1415,  427, 1256, 1578
 3509, 1781, 1779, 2373,  860
 3510, 2034, 2005, 2008, 2004
 3511, 1614, 1616, 1636, 1615
 3512, 1565,  896,  897,  936
 3513, 1620, 2108,  483,  444
 3514, 1572,  273, 1369,  270
 3515, 1577, 2240, 1578, 1576
 3516, 2033,  406,  405,  366
 3517, 2332,  743,  742,  194
 3518, 1256, 1578,  426, 1576
 3519, 2285, 2007, 2031, 2006
 3520, 1853,  406,  367,  407
 3521, 2367,  270,  106,  107
 3522, 2285, 2006,  857,  858
 3523, 2374,   45,  275,  272
 3524, 2310, 2285,   43,  858
 3525, 1380,  372,  371,  104
 3526, 1482, 1483, 1371,  960
 3527, 1307,  410,  409,  370
 3528, 2101,  447,  487,  486
 3529, 1371,  960, 1483,  999
 3530, 1398,  895,  896,  935
 3531, 2030, 2027,  283, 2029
 3532, 1953,  999, 1483, 2375
 3533, 1645,  373,  374,  413
 3534, 2161, 2204, 2218, 2224
 3535, 1641,  412,  372,  373
 3536, 1268, 1373, 1368, 1372
 3537, 1895,  647,  648,  687
 3538, 2381,  523,  483,  484
 3539, 1857,  854, 2316,  855
 3540, 1645,  413,  412,  373
 3541, 1604, 2076,   84,  336
 3542, 2222,  966,  965,  926
 3543, 1371,  998, 1958,  959
 3544, 1526, 1051, 1501, 1052
 3545, 2434, 2032,  829, 2343
 3546, 2076,  339,   83,   84
 3547, 2343, 2422,  353, 1716
 3548, 2434, 2032,  353,  356
 3549, 2218,  450, 2217,  489
 3550, 2434, 2422,   71,  353
 3551, 1802, 2262, 1086, 1047
 3552, 1696, 1703, 2128, 2183
 3553, 1662,  380,  420,  419
 3554, 2128,  663, 2129, 2127
 3555, 1442, 2342, 1443, 1441
 3556, 1459,  416,  415,  376
 3557,  415,  375, 1642, 2287
 3558, 1696,  661, 2128,  700
 3559, 2420, 2128, 2183, 2132
 3560, 2128,  661, 2165,  662
 3561, 2287, 1963,  291,  288
 3562, 1855, 2374,  275, 2031
 3563, 2317,  300,   96,   97
 3564, 2374, 2031, 2402, 2006
 3565, 2374, 2031,  272,  275
 3566, 1646, 2216, 2342, 1748
 3567, 2374,   45, 2379,  275
 3568, 1266, 1658,  925,  886
 3569, 2050, 1864, 1454, 1269
 3570, 1378, 1959, 2220, 1958
 3571, 1370, 1632, 1957, 1373
 3572, 1664,  419,  418,  379
 3573, 1843, 1378, 1208, 1959
 3574, 2309, 2312, 1843, 1378
 3575, 1373, 1374,  502, 1267
 3576, 1263,  301,  298,  302
 3577, 2312, 1267, 2198,  503
 3578, 1660,  418,  457,  417
 3579, 2068,  891,  851,  852
 3580, 1624, 2124, 2066, 1664
 3581, 2321,   56,  846,  845
 3582, 1378, 2312, 1267, 2198
 3583, 1770, 1769, 2113, 1767
 3584, 1625,  311,  307,  308
 3585, 1801,  571,  532,  572
 3586, 2113,  692, 2388, 2452
 3587, 2067,  309, 2303,  306
 3588, 1363,  881, 1364, 1365
 3589, 1488, 1627, 1486, 1694
 3590, 1807, 2113, 2364,  653
 3591, 1878, 1078, 1079, 1118
 3592, 1623, 1625, 1631, 2359
 3593, 2113, 2388,  693, 1769
 3594, 2310, 2006, 2285,  858
 3595, 1666,  497,  496,  457
 3596, 2310, 2005, 2007, 1780
 3597, 2310, 2005, 1780, 1779
 3598, 2058, 1045, 1005, 1006
 3599, 1363,  920, 1364,  881
 3600, 2310, 1780,  858,  859
 3601, 1660,  417,  457,  456
 3602, 1483, 2375,  999, 1000
 3603, 2396, 2264,  383,  384
 3604, 1356,  316, 1994,  317
 3605, 1367,  463,  462,  423
 3606, 2310, 1779,  859,   42
 3607, 2324, 2323, 1004, 1945
 3608, 2060, 2222, 2323, 1659
 3609, 2347, 2326, 1993,  312
 3610, 1656, 1484,  882,  883
 3611, 1368, 2001, 1267, 1366
 3612, 2251, 2324, 1945, 2323
 3613, 2058, 1005, 2391, 1006
 3614, 2406,  323,  320,   61
 3615, 2062, 2323, 2222,  966
 3616, 1371,  999,  998,  959
 3617, 2325,  425,  385,  386
 3618, 1771, 2135, 2115, 1773
 3619, 1364,  880,  920,  919
 3620, 2106, 2254, 1511, 2272
 3621, 2408,  388, 2413,   87
 3622, 2403,  324,   88,   89
 3623, 2242,  326,  329,  325
 3624, 1482,  922,  961,  921
 3625, 1619, 2008, 1652, 1622
 3626, 1780, 2208, 2350, 1781
 3627, 2254, 1618, 1511,  977
 3628, 2414,  392, 2076,   83
 3629, 2034, 1896, 1344, 2335
 3630, 1581,  428,  427,  388
 3631, 2219,  539,  540,  579
 3632, 1578,  427,  426,  387
 3633, 2337, 2094,  245,  248
 3634, 1561, 1560, 2150, 1593
 3635, 1423,  429,  428,  389
 3636, 2423,   67,  341,  338
 3637, 1255,  550,  551,  590
 3638, 1476,  468,  508,  507
 3639, 2407,   65,  837,  836
 3640, 2337,   36, 2338,  248
 3641, 2279, 2094, 2337, 2096
 3642, 2121,  871,  872,  911
 3643, 1424,  391,  430,  390
 3644, 1605,  334,  337,  333
 3645, 1733, 1002, 1001,  962
 3646, 2122,  392, 2414,  393
 3647, 1604, 2076, 2079,  391
 3648, 2093, 2337, 2094, 2096
 3649, 2407,  332,   64,   65
 3650, 1735,  290, 2028,  287
 3651, 1255, 1253,  550, 1740
 3652, 1862,  908,  869,  909
 3653, 1795,  910,  911,  950
 3654, 1735, 2288,   50,  851
 3655, 2246,  511,  510,  471
 3656, 1411, 2270, 1717,  346
 3657, 1735, 1747, 2028, 2068
 3658, 1778, 1777, 1137, 1138
 3659, 2410,   69, 2016,  347
 3660, 1778, 1777, 1138, 1099
 3661, 2122, 2414, 2415,  393
 3662, 1233,  395,  435,  434
 3663, 1560,  506,  546,  545
 3664, 2080,  431, 2079,  392
 3665, 1979, 1527, 1097, 1524
 3666, 1937, 1938, 2167, 1983
 3667, 2016,  831,   70,  832
 3668, 1940, 2041, 1521, 2045
 3669, 2422,  831,  830,   71
 3670, 1313, 1312, 1717,  349
 3671, 1949,  868,  867,  828
 3672, 1234,  434,  435,  474
 3673, 2036, 2448,  744, 2085
 3674, 2449, 2332,  743, 2084
 3675, 2449, 2085,  743,  744
 3676, 2449,  195, 2332, 1172
 3677, 2407, 2421,   65,  836
 3678, 1850, 1622, 2008, 2035
 3679, 2210, 1947, 1910, 2211
 3680, 2407, 2318,   64,  332
 3681, 1601,  836, 2407,  837
 3682, 1939, 1775, 1942,  675
 3683, 1243,  436,  435,  396
 3684, 2398, 2417, 1190, 2199
 3685, 1775, 2037,  823, 2358
 3686, 1228,  804,  764,  765
 3687, 1775, 2358,  823,  158
 3688, 2199,  437,  436,  397
 3689, 2199, 1187,  116, 1190
 3690, 1775, 2048,  676, 1939
 3691, 2034, 2033, 1896, 2004
 3692, 1775,  824, 2037, 1941
 3693, 1775,  823, 2037,  824
 3694, 2135, 2260, 1157, 1118
 3695, 1283, 1587, 1287,  439
 3696, 2307,   17,   18,  227
 3697, 2115, 2260, 2443, 2445
 3698, 1279,  402,  403,  442
 3699, 1839,   31,   32,  225
 3700, 2115, 2260, 2376, 2443
 3701, 1273, 1278, 1996, 1991
 3702, 2115,  727, 1773, 2445
 3703, 1287,  478,  477,  438
 3704, 2135, 2115, 2445, 2260
 3705, 2141, 1751, 1712, 1758
 3706, 2059, 2324, 2138, 2139
 3707, 1992,  251, 2142, 2338
 3708, 2380,  904,  864,  865
 3709, 2177, 1787, 1806,  613
 3710, 2059, 1712, 2324, 2139
 3711, 2125, 1713, 1712, 1766
 3712, 2453, 2188, 2184, 2185
 3713, 2453, 2452,  808,  143
 3714, 2382, 1616, 1614, 1617
 3715, 1277,  440,  401,  441
 3716, 2453, 2454,  144,  809
 3717, 1583,  981, 2119,  942
 3718, 1345,  443,  403,  404
 3719, 1621,  404,  405,  444
 3720, 2453, 2188,  809,  808
 3721, 1547, 1974, 2255, 1546
 3722, 1695,  441,  442,  481
 3723,  899, 1781,  860,  859
 3724, 1514,  979, 1616, 1615
 3725, 2107, 1511, 1016, 2272
 3726, 1516,  443,  482,  442
 3727, 2035,  405,  445,  444
 3728, 1780,  897,  858,  898
 3729, 1279, 1516,  442, 1345
 3730, 1619, 1622, 1652, 2108
 3731, 1551, 1501, 1013, 1499
 3732, 1396,  934,  935,  974
 3733, 1975, 2053, 2149,  480
 3734,  407, 1651,  447, 1571
 3735, 1302, 1444, 1445,  451
 3736, 1451, 2230, 2217,  490
 3737, 1568,  447,  408,  448
 3738, 2218, 1302, 2217,  450
 3739, 1441,  930, 1746,  931
 3740, 2374, 2379,  856, 2402
 3741, 1921, 1090, 1469, 1089
 3742, 2455,  928,  889,  929
 3743, 1442, 1445, 1302, 1444
 3744, 1472, 2174, 2155, 2215
 3745, 1567, 2031, 2006, 2402
 3746, 1392,  894, 1858,  895
 3747, 2202, 1396, 1551,  973
 3748, 2204,  487,  527,  526
 3749, 2379,  856,  855,   46
 3750, 1676, 1021,  982, 1022
 3751, 2160,  448,  449,  488
 3752, 1565, 2402, 2006,  896
 3753, 1653,  897, 1565, 2006
 3754, 1730, 1246, 1727, 1883
 3755, 1450,  453,  492,  452
 3756, 1302,  450,  411,  451
 3757, 2218,  449,  450,  489
 3758, 1730, 1883, 1066, 1065
 3759, 1783, 1106, 1784, 1105
 3760, 1250, 1249, 1610, 1727
 3761, 1543,  935,  936,  975
 3762, 1444,  452,  451,  412
 3763, 1783, 1612, 1727, 1730
 3764, 1676, 2345, 1022,  982
 3765, 1851,  407, 1853,  368
 3766, 2217,  490,  450,  451
 3767, 1730, 2180, 1726, 1246
 3768, 1322, 1608, 1324, 1606
 3769, 1701, 1826, 1825, 1700
 3770, 1851, 1369, 2367, 2009
 3771, 2063,  454,  455,  494
 3772, 2145,  533,  534,  573
 3773, 1302,  451, 2217,  450
 3774, 1700, 1980, 1826, 1201
 3775, 1676, 2345, 1675, 2348
 3776, 1701, 1531, 1535, 1320
 3777, 1451,  530,  529,  490
 3778, 1701,  751,  750, 1320
 3779, 2013, 1461,  294, 2333
 3780, 1700, 1201, 1826, 1200
 3781, 1834,  493, 2063,  494
 3782, 1826, 1321,  750,  203
 3783, 2067,  307, 1625,  310
 3784, 1448,  530,  491,  531
 3785, 1662,  420,  459,  419
 3786, 1675,  229,  232,  228
 3787, 1732,  925,  964,  924
 3788,  789, 1701, 1826, 1825
 3789, 1924, 2278, 1914,  697
 3790, 1358, 1637, 2264, 1993
 3791, 1627,  460, 1694,  459
 3792, 1416, 1475, 1582, 1580
 3793, 1579, 1603, 1602, 1582
 3794, 1834,  533,  532,  493
 3795, 2456, 1943, 2127, 2182
 3796, 1655,  842,  843,  882
 3797, 2238,  461,  421,  422
 3798, 2420, 2132, 2456, 2127
 3799, 1666,  497,  457,  458
 3800, 1799,  571,  570,  531
 3801, 1977, 1733,  963, 1002
 3802, 2400,  844,  843,   58
 3803, 2238,  461,  460,  421
 3804, 2456, 2457,  796,  131
 3805, 1655,  881,  842,  882
 3806, 2456, 2127,  703,  702
 3807, 2225,  456, 1456, 1661
 3808, 2113, 2112, 2388, 1769
 3809, 2388, 2249,  807, 2112
 3810, 1365,  880,  841,  881
 3811, 2388, 2112,  807,  806
 3812, 2359,  845,  846,  885
 3813, 1356, 2399,  320,  317
 3814, 2388, 2452,  142,  807
 3815, 1544,  752, 1530, 1535
 3816, 1535, 1701, 2458, 1702
 3817, 1367,  463,  423,  424
 3818, 2405, 2319, 2409,  839
 3819, 1543, 1565,  936,  935
 3820, 1702, 1530, 2458, 1535
 3821, 1476, 1420, 1421, 1422
 3822, 1259,  465,  425,  426
 3823, 1356, 1995,  319,  320
 3824, 1530, 1535,  791, 2458
 3825, 1259,  464,  425,  465
 3826, 1530,  791, 1535,  752
 3827, 1633, 1635, 1634,  581
 3828, 2022,  913,  874,  914
 3829, 1352, 1354,  587,  586
 3830, 1366,  463,  424,  464
 3831, 2271,  873,  913,  912
 3832, 1373, 2159, 1268,  501
 3833, 1477,  429,  430,  469
 3834, 2219, 2159, 1373,  540
 3835, 1561, 1560, 1593, 1480
 3836, 2161, 1394, 2100, 2202
 3837, 1373, 1372, 1957, 1370
 3838, 1372, 1373, 2159, 1268
 3839, 2312,  504,  543,  503
 3840, 1256,  465,  426,  466
 3841, 1957, 2219, 1373, 1632
 3842, 2097, 2098, 1757, 2375
 3843, 1477,  468,  429,  469
 3844, 1692, 2252, 2099, 2401
 3845, 1601, 1603,  876, 1602
 3846, 1755, 1711, 1002, 1977
 3847, 1957, 2219, 2159, 1373
 3848, 2417,    6, 1190,  116
 3849, 1715,  870,  831,  871
 3850, 1476,  468,  469,  508
 3851, 2423, 2421,   66,  338
 3852,  469,  430, 2021,  470
 3853, 2417, 2200,   77,  398
 3854, 1419, 1581, 2412, 1423
 3855, 2408,  330,   86,   87
 3856, 2011, 1605,  334, 2078
 3857, 2102,  233,  229,  230
 3858, 1967,  546,  507,  547
 3859, 1419, 1581, 1417, 2408
 3860, 2408,   87, 2413,  327
 3861, 1867, 2064, 1978, 1866
 3862, 2231,  714,  713,  165
 3863, 1630, 1662, 1627, 1693
 3864, 1310,  394,  433,  393
 3865, 1411, 1717, 1312,  346
 3866, 2270,  344, 2410,  347
 3867, 1657, 2346, 1656, 2400
 3868, 2400,   57, 2395,  844
 3869, 1314,  473,  433,  434
 3870, 1830,  907,  868,  908
 3871, 2163,  471,  432,  472
 3872, 2269,  470,  510,  509
 3873, 1988,  553, 2327,  592
 3874, 2346, 1628, 2395, 1625
 3875, 2459,  476, 1972,  437
 3876, 1250, 1249, 1327, 1610
 3877, 1628, 1626, 2346, 1656
 3878, 1947, 1949, 1830,  907
 3879, 1829, 2460,  906,  945
 3880, 1676, 1021, 1870,  982
 3881, 1630, 1976, 1623, 1262
 3882, 1626, 2067, 1625,  310
 3883, 1241,  474,  435,  475
 3884, 1439, 1092, 2073, 1093
 3885, 1411, 2341, 2121, 1989
 3886, 1494, 1495, 2072, 2110
 3887, 1502, 1709, 1091, 1439
 3888, 1253,  511,  551,  550
 3889, 1519, 1527, 1778, 1973
 3890, 1304,   18,  230,  516
 3891, 1349,  514,  553,  513
 3892, 1791, 1831, 1314, 1379
 3893, 1502, 2070, 1053, 1499
 3894, 2070, 1492, 1499, 1493
 3895, 2414,   83, 2076,  339
 3896, 2075, 2123, 2122, 2414
 3897, 2414,   82, 2415,  393
 3898,  580, 2170, 1633, 1632
 3899, 2459,  437,  118,  476
 3900, 2075,  342, 2414,  339
 3901, 1838, 2096,   33,  905
 3902, 2340,   16,   17,  224
 3903, 2424, 2426, 2090, 2390
 3904, 1996,  941,  902,  942
 3905, 2102, 1295,  232,  233
 3906, 2426, 2458,  791,  126
 3907, 1778, 1098, 1138, 1137
 3908, 2426,  707, 2090,  708
 3909, 1898, 1680, 2283, 1679
 3910, 2149,  479,  440,  480
 3911, 2283, 1898,  812,  773
 3912, 2345,  228,   30,   31
 3913, 1282, 1283, 2149, 1587
 3914, 2053,  480,  519,  479
 3915, 2283, 2461, 2187,  811
 3916, 1678, 1679, 1682, 1680
 3917, 2033, 2334, 2369,  366
 3918, 1997,  902,  901,  862
 3919, 2283, 2462,  812, 1898
 3920, 1516,  482,  481,  442
 3921, 2416, 1190, 2417,   76
 3922, 2398, 2416, 2360, 2362
 3923, 1996, 2294,  903,  902
 3924, 2435, 2362, 1189, 2361
 3925, 2398, 2199, 1190, 2362
 3926, 2033,  367, 1853,  406
 3927, 2310,   42,  859,   43
 3928, 1858,  894, 1857,  855
 3929, 2109,  485,  445,  446
 3930, 1392,  894,  895,  934
 3931, 2417, 2200, 2199, 2398
 3932, 2398, 2416, 2417,  357
 3933, 2398, 2416,  358, 2360
 3934, 2253, 1016, 1055, 1015
 3935, 2416, 2362, 1190, 1189
 3936, 1507, 1057, 1524, 1548
 3937, 2101,  448,  487,  447
 3938, 1515, 2055, 1508, 1514
 3939, 1506, 1524, 1525, 1507
 3940, 2056, 1523, 1515, 2055
 3941, 1507, 1524, 1057, 1508
 3942, 2226, 1748,  893, 1391
 3943, 2110,  484,  524,  523
 3944, 1174, 2040, 1135, 2086
 3945, 2400, 1628,  844, 2395
 3946, 1569, 1307, 1303,  410
 3947, 1538,  526,  565,  525
 3948, 2400, 1656,  844, 1628
 3949, 1626, 2346, 1625, 1628
 3950, 1655, 1657,  842, 2399
 3951, 1629, 1484, 1656,  883
 3952, 2224,  488,  489,  528
 3953, 2230,  528,  489,  529
 3954, 2160,  448,  488,  487
 3955, 1656,  844, 1628,  883
 3956, 1626, 2263, 2326, 2346
 3957, 2217,  490,  489,  450
 3958, 1537,  604,  564,  565
 3959, 1657, 2346, 2400,  314
 3960, 1491, 1656, 1362, 2263
 3961, 2029, 1856,  281,  280
 3962, 1485, 1484, 1629,  922
 3963, 1362, 1489, 1491, 2264
 3964, 1450,  492,  491,  452
 3965, 2224,  528,  527,  488
 3966, 1822,  493,  453,  454
 3967, 1368, 1574, 2002, 2000
 3968, 1485, 1491, 1629, 1484
 3969, 2069,  929,  968,  928
 3970, 2455,  889,  890,  929
 3971, 1489, 1490, 1491, 2264
 3972, 2012, 2354, 1154,  177
 3973, 2223,  530,  569,  529
 3974, 2012, 2354,  177,  725
 3975, 2062,  966,  927,  967
 3976, 1799,  532,  571,  531
 3977, 2012, 2354,  725, 2463
 3978, 2225,  495,  494,  455
 3979, 1908, 2354, 2012, 2463
 3980, 1827,  570,  569,  530
 3981, 2444, 2463,  726, 1773
 3982, 1956, 1954, 1951, 1957
 3983, 1571,  408, 1568,  447
 3984, 2168, 1859,  609,  648
 3985, 2135, 2445, 2444, 1156
 3986, 1952, 1911, 1075, 1076
 3987, 1315, 1718, 1724, 1316
 3988, 2099,  500,  539,  499
 3989, 1315, 1316, 1724, 1317
 3990, 1688,  537,  536,  497
 3991, 1315,  717, 1316,  716
 3992, 1315, 1326, 1145,  168
 3993, 1210, 1074, 1113, 1073
 3994, 1605, 1604,  333,  336
 3995, 1604, 2412,   85,  390
 3996,  496, 1661,  456,  495
 3997, 2035, 1850,  445,  406
 3998, 1605, 1604, 2076, 2079
 3999, 2050, 2104, 2051, 1382
 4000, 1482, 1363,  921,  920
 4001, 2050, 2104, 1382,  848
 4002, 2051, 1381, 1382,  296
 4003, 1268,  463,  502,  462
 4004, 1586, 1676, 1870,  982
 4005, 2347,  383, 2264,  422
 4006, 2050, 1381,  849, 1382
 4007, 2464,  733,  185,  734
 4008, 2051, 1382,  299,  296
 4009, 1688,  497,  498,  537
 4010, 2159,  540,  500,  501
 4011, 1639, 1648, 1309, 1646
 4012, 2405,  839,  840,  879
 4013, 1855, 1856, 2379, 1858
 4014, 2151,  543,  583,  582
 4015, 1856, 2379, 2316,  278
 4016, 1308, 1397, 1307, 1569
 4017, 1357,  319, 1995,  322
 4018, 1856, 1504,  277, 1306
 4019, 2167, 1820,  595, 2103
 4020, 1563,  994, 1840, 1033
 4021, 1937, 1704, 1777, 1297
 4022, 1581, 1417, 2408, 1578
 4023, 1519, 1670, 1778, 1677
 4024, 1573, 1582, 1575,  917
 4025, 1240, 2054, 1238, 1821
 4026, 1602,  837,  838,  877
 4027, 2198,  465,  504,  464
 4028, 1672, 1820, 2167, 2103
 4029, 1936, 2136, 1935, 2304
 4030, 1821, 2167,  557, 1983
 4031, 1420, 1422, 1476, 1480
 4032, 1601,  835, 2421,  836
 4033, 2014, 2407, 2318, 1602
 4034, 1475,  955,  954,  915
 4035, 1670, 1937, 2167, 1983
 4036, 2014, 1601,  335, 2407
 4037, 2014, 1419,  331,  334
 4038, 1603, 1582,  916,  877
 4039, 1712, 1081, 1042, 1082
 4040, 1670, 1821, 1983, 2167
 4041, 1896, 2365, 2334, 1343
 4042, 2033, 1853, 2369, 2004
 4043, 1480,  468,  507,  467
 4044, 1560,  546,  506,  507
 4045, 2246, 1253,  511, 1831
 4046, 2024,  470,  509,  469
 4047, 2404,  834,  835,  874
 4048, 2370, 1853, 2369,  367
 4049, 1606,  588, 1260,  589
 4050, 2369, 2004,  264,  261
 4051, 1412, 2121, 2341, 2162
 4052, 2279, 2094, 2096, 1289
 4053, 2330, 2094, 1289, 2227
 4054, 2330, 2094,  244,  245
 4055, 1613,  875,  876,  915
 4056, 2246,  472,  511,  471
 4057, 2330, 2328,  217,   12
 4058, 1778, 1137, 1777, 2305
 4059, 2270, 1989, 2410, 2267
 4060, 1669, 1672, 1671, 1673
 4061, 1936, 1935, 1707, 2433
 4062, 2343,  829, 2434,  830
 4063, 2120,  509,  510,  549
 4064, 1831,  473,  512,  472
 4065, 1482, 1485,  922, 1484
 4066, 1989,  832,  833,  872
 4067, 1300, 1776, 1299, 1297
 4068, 1238, 1585, 1676, 2057
 4069, 1312,  345,  349,  348
 4070, 1796,  987, 1792,  948
 4071, 1379,  474,  513,  473
 4072, 2231,  166,  714,  165
 4073, 1671, 1059, 1677, 1060
 4074, 2436, 1949,  828, 2363
 4075, 2363,  356,   73,  359
 4076, 1938, 2166, 2167,  596
 4077, 2023, 2018, 1742,  952
 4078, 1558, 1347, 1030, 1917
 4079, 1346, 1554, 1351, 1354
 4080, 1947, 1948, 1185, 2361
 4081, 2210, 1829, 1387, 1910
 4082, 1350,  990, 1742,  991
 4083, 1478, 2023, 2018, 1742
 4084, 2296, 1236, 1312, 1244
 4085, 1952, 1076, 1075, 1036
 4086, 1952, 1076, 1036, 1037
 4087, 2398,  354, 2397,  355
 4088, 2210, 1971, 2211, 1910
 4089, 2397,  355,  351,  352
 4090, 2296, 1236,  348, 1312
 4091, 2296, 1236, 2431,  351
 4092, 1948, 1188,  208,  207
 4093, 2296, 1236,  351,  348
 4094, 1233, 1236, 2296, 1244
 4095, 1947, 2211, 2361, 1186
 4096, 2278,  658,  618, 2170
 4097, 1586,  983,  943,  944
 4098, 1514, 2117, 1019,  980
 4099, 2398, 2416, 2362, 1190
 4100, 1241,  436,  475,  435
 4101, 1240, 1239, 2102, 1675
 4102, 2296, 1244, 2428,  395
 4103,  907,  867, 1947, 1949
 4104, 1596, 1597,  777,  738
 4105, 1597, 2451, 2465,  739
 4106, 1471, 1923, 1597, 1890
 4107, 1597, 1890,  778, 2302
 4108, 2054,  517,  478,  518
 4109, 1596, 1597,  738, 2451
 4110, 1851, 2367, 2370, 1852
 4111, 1620,  483,  443,  444
 4112, 2367,  106, 1369,  369
 4113, 2034,  262, 2335, 2005
 4114, 1851,  368, 2367,  369
 4115, 1527, 1058, 1059, 1098
 4116, 1821,  518,  557,  517
 4117, 2310, 2285,  269,   43
 4118, 2366, 1280, 1342, 2144
 4119, 1622, 1619, 2208, 1621
 4120, 2347, 2326,  312, 2394
 4121, 1620,  444, 1621, 1622
 4122, 2298,  862,  861,   40
 4123, 2275,  749,   25,   24
 4124, 1947,  206, 1182, 1185
 4125, 2366, 1342, 1280, 1341
 4126, 1506, 1515, 1523, 1508
 4127, 1820,  556,  595,  555
 4128, 2365, 1280, 2366,  364
 4129, 1511,  977, 1017, 1016
 4130, 2358,  157,  676,  677
 4131, 2366,  252, 1342,  255
 4132, 1947,  867,  906,  207
 4133, 1640,  286, 1643,  285
 4134, 1639, 2030, 1640, 1641
 4135, 2030,  282, 1640, 2276
 4136, 1512, 1509, 1620, 1619
 4137,  859, 1781,  860, 1779
 4138, 2299, 1276,  361,  362
 4139, 2299,  114, 1292,  246
 4140, 1867, 1984, 1869, 2065
 4141, 1981,  560,  559,  520
 4142, 2035,  406,  445,  405
 4143, 1274, 2143, 2299, 1276
 4144, 1974,  561,  521,  522
 4145, 2190, 1552, 2224, 1553
 4146, 2224,  489, 2230,  528
 4147, 2374,  857,  856,   45
 4148, 2419,  561,  522,  562
 4149, 1495,  564, 1537, 1737
 4150, 2310, 1779,   42,  266
 4151, 1495,  563,  524,  564
 4152, 1644,  453,  452,  413
 4153, 2386,   47, 2316,  854
 4154, 1500, 1495, 1537, 1737
 4155, 1537, 1737,  603, 1431
 4156, 1402,  969,  968,  929
 4157, 1402,  930, 1441,  969
 4158, 2451,  739,  190,  191
 4159, 1500, 1495, 1538, 1537
 4160, 2230,  489,  490,  529
 4161, 1839, 1838,   32,  944
 4162, 2228,  526, 2204, 1552
 4163, 1445,  491,  451,  452
 4164, 2095,  944, 1586,  943
 4165, 1552,  565,  526,  566
 4166, 2451,  190,  739,  738
 4167, 1934, 1443, 1009, 1008
 4168, 1586, 1839, 1239, 2345
 4169, 1839,   31, 2345,  983
 4170, 2203, 2215, 1446, 2201
 4171, 2189,  568,  528,  529
 4172, 1416, 1579, 1582, 1603
 4173, 1418, 1601, 1603, 1613
 4174, 1553,  567,  566,  527
 4175, 1602, 2243, 1582,  877
 4176, 1602, 2243,  877,  838
 4177, 2407, 2318, 1602,  837
 4178, 1602,  838, 2318, 2243
 4179, 2164, 2271, 2162, 2341
 4180, 1824,  532,  531,  492
 4181, 2271,  912, 2162, 2341
 4182, 1834,  494,  533,  493
 4183, 1741, 2120, 2246, 1744
 4184, 1350, 1029, 1347, 1327
 4185, 2146,  534,  533,  494
 4186, 2269, 2020, 2268, 2021
 4187, 2324, 1004, 2323, 1005
 4188, 1801,  532,  533,  572
 4189, 1285, 1744, 1251, 1740
 4190, 2244, 1666,  497,  496
 4191, 1687,  538,  537,  498
 4192, 2352, 2353, 1299, 2306
 4193, 2353,   26, 2352,  240
 4194, 2176,  534,  535,  574
 4195, 2353, 1705,  749, 2275
 4196, 2291,  536,  535,  496
 4197, 1692, 2401, 2097, 2252
 4198, 2097, 1757, 2209, 2375
 4199, 2250,  575,  535,  536
 4200, 2252,  577,  576,  537
 4201, 2353, 2275,  749,   25
 4202, 2353, 1178,   26,    4
 4203, 2353,    4,   25,  201
 4204, 2353, 2437, 1178,  201
 4205, 2236, 1001, 1000,  961
 4206, 2317, 1460, 1665, 2089
 4207, 1374,  542,  541,  502
 4208, 2317, 2124,  300, 2089
 4209, 2320, 1665, 2317,  379
 4210, 2317, 2089,  300,  297
 4211, 2340, 2233,   16,  224
 4212, 2340,   17, 2307,  227
 4213, 1588,  224, 2340,  227
 4214, 1455, 1864, 1454, 1408
 4215, 1265, 1271, 1661, 1659
 4216, 1373,  502, 1374,  541
 4217, 1633,  542, 1635,  581
 4218, 1483,  961, 1000,  960
 4219, 1452, 1271, 1455, 1456
 4220, 1453, 1962, 1964, 2092
 4221, 1452, 1271, 1270, 1454
 4222, 2050, 1864, 1269,  888
 4223, 2388,  693, 1769, 2389
 4224, 1455, 1269, 1454, 1864
 4225, 1953,  998, 1371,  999
 4226, 1455, 2222, 1269, 1864
 4227, 1241,  475, 1888, 1386
 4228, 2332, 1425, 1433, 1434
 4229, 2236, 2098, 2375, 1000
 4230, 1581,  388, 2408,  389
 4231, 2332, 1171, 1425, 1434
 4232, 1710,  954,  955,  994
 4233, 1482, 1483,  960,  961
 4234, 1374,  542,  502,  503
 4235, 2332, 2083, 1172, 1434
 4236, 2449, 2083, 1172, 2332
 4237, 1634,  581,  621,  620
 4238, 1415,  467,  427,  428
 4239, 2449, 2084,  743, 2085
 4240, 2332, 2084, 1433,  742
 4241, 2332, 2084,  742,  743
 4242, 2464, 2295,  186, 1163
 4243, 1602,  837, 2318,  838
 4244, 2150,  506,  545,  505
 4245, 2464, 2258,  733, 1680
 4246, 2464,  734, 1680,  733
 4247, 2464, 2466,  185,  733
 4248, 2002, 2003, 1364, 1363
 4249, 1814,  624,  623,  584
 4250, 2002, 2003, 2000, 1359
 4251, 2423,  834, 2418,   67
 4252, 1327, 1028, 1325, 1029
 4253, 1364, 1365,  880, 1361
 4254, 2334,  366,  110,  109
 4255, 2207, 1343,  365,  404
 4256, 2334,  110,  366,  365
 4257, 2207, 2334,  365, 1343
 4258, 1966,  508,  548,  547
 4259, 2365, 2334, 1343,  365
 4260, 1896, 2365, 1343, 1341
 4261, 1999, 1341,  259, 2335
 4262, 1920,  625,  664,  624
 4263, 2033, 1896,  261, 2334
 4264, 1597, 2302,  739, 2465
 4265, 1597, 2451, 1922, 2465
 4266, 1596, 1597, 2451, 1922
 4267, 2451,  191, 2465,  739
 4268, 2398, 1888, 2199, 2362
 4269, 1740,  550,  510,  511
 4270, 2343, 2422, 1715,  831
 4271, 1606,  589,  628,  588
 4272, 2296,   80,   79,  396
 4273, 1947, 1910, 1183, 1182
 4274, 2451, 1167, 1922, 1168
 4275, 2404,  834, 2423,  835
 4276, 2423,   67, 2418,  341
 4277, 2423, 2421,  338, 2078
 4278, 2434, 2363,  356,   72
 4279, 1949,  868,  907,  867
 4280, 2082, 2404,  834, 2423
 4281, 1511, 1619, 2254, 2106
 4282, 1349, 1390, 1379, 2026
 4283, 1514, 2117,  980, 2119
 4284, 2107, 1507, 1056, 1017
 4285, 2106, 1652, 2109, 2108
 4286, 2280, 2266, 1095, 1549
 4287, 1349,  475,  514,  474
 4288, 1954, 1076, 1952, 1037
 4289, 1547, 2280, 1549, 2266
 4290, 2432, 2305, 2438, 1176
 4291, 2438, 1707, 2306, 2305
 4292, 2437, 2438, 1707, 2306
 4293, 1970,  119,  476,  118
 4294, 1947,  906,  206,  207
 4295, 2438, 1707,  747,  748
 4296, 1398, 1395, 1308, 1396
 4297, 2447, 1191, 1376,  120
 4298, 1543, 1654,  975,  936
 4299, 1543, 1396, 1398,  935
 4300,  152,  817, 1595,  682
 4301, 2353,  201, 1178,    4
 4302, 2102, 1304, 1295,  233
 4303, 1295,  236, 1304,  594
 4304, 1396, 1398,  934, 1392
 4305, 2148,  555,  516,  556
 4306, 1654, 1541, 1653, 1543
 4307, 2254, 1654, 1653,  937
 4308, 1567, 2031, 2007, 2006
 4309, 2167,  595,  556,  596
 4310, 1295,  594, 2344,  236
 4311, 2154,  607, 2175,  568
 4312, 2153, 2154, 2189, 2223
 4313, 1522,  558,  519,  559
 4314, 1983,  597,  596,  557
 4315, 2344,  236,   20,   21
 4316, 2109, 1850,  445, 1622
 4317, 2054, 1587,  479,  478
 4318, 2071, 2281, 2253, 2107
 4319, 2255,  600,  561,  601
 4320, 2046,  677,  638,  678
 4321, 1673,  231,  235,  234
 4322, 2224, 2189, 1553,  528
 4323, 1553,  567, 1465,  566
 4324, 1781, 2005, 1780, 2208
 4325, 2154, 1467, 2175,  607
 4326, 1879, 1880, 2460,  945
 4327, 2072,  563,  523,  524
 4328, 1909, 1179, 1880,  213
 4329, 2044,  559,  560,  599
 4330, 2437,  749,  748,  200
 4331, 1880,   10, 1847,  213
 4332, 2014, 1602, 2318, 2241
 4333, 1277,  441, 2149,  440
 4334, 2072, 2419,  562, 2255
 4335, 2014, 1601, 2407, 1602
 4336, 2318, 2319, 2241, 2243
 4337, 2318, 2241,  329,  332
 4338, 2014, 2318,  332, 2241
 4339, 1602, 2318, 2241, 2243
 4340, 2307,   17,  516,   18
 4341, 2307,  516, 1589, 2148
 4342, 2307,  477, 1589,  516
 4343, 2307, 1589,  227, 2148
 4344, 1296,  634,  673,  633
 4345, 2307,  227,   18,  230
 4346, 1655, 1484, 1362, 1363
 4347, 1091, 1439, 1092, 1502
 4348, 1974, 1668,  521, 1517
 4349, 1489, 2264, 1367, 1490
 4350, 1799, 1801,  571,  532
 4351, 2263,  313, 1994, 1993
 4352, 1629,  922, 1484,  883
 4353, 1482, 2003, 1363,  920
 4354, 2252, 1876, 1788,  576
 4355, 1836, 1007, 1008, 1047
 4356, 2342,  971,  931,  932
 4357, 2027,  287,  283,  284
 4358, 1402,  969,  929,  930
 4359, 1686, 1086, 1125, 1085
 4360, 1804, 1807, 1806, 1787
 4361, 1875, 2252, 1876, 1788
 4362, 2386,  854,  853,   48
 4363, 2189,  567,  528,  568
 4364, 1763, 2213, 1875, 1788
 4365, 2387,  853,  852,   49
 4366, 1465,  606,  566,  567
 4367, 1807, 1787, 1788,  614
 4368, 1330, 1332, 1860, 1328
 4369, 2175,  567,  568,  607
 4370, 2223,  569,  568,  529
 4371, 2455, 2092,  890,  889
 4372, 2454, 1813, 2185, 2184
 4373, 2062,  927, 1864,  928
 4374, 2453, 2454, 2185, 2184
 4375, 1837, 2058, 1006, 1045
 4376, 2154,  608,  607,  568
 4377, 2454, 2461,  145,  810
 4378, 1827,  531,  570,  530
 4379, 1809,  610,  570,  571
 4380, 2454, 1813,  690,  689
 4381, 2323, 1005,  965,  966
 4382, 2436,   73, 2363,  828
 4383, 2436,    5,  208,   74
 4384, 2436,  359,   73,    5
 4385, 2436, 1188, 1948, 2361
 4386, 2145,  533,  573,  572
 4387, 2436,  208, 1948, 1188
 4388, 2098, 1039, 1000, 1040
 4389, 2062, 2222,  927,  966
 4390, 2057, 1677, 1676, 1238
 4391, 1977, 1002,  963, 1003
 4392, 1776, 2336, 1100, 1674
 4393, 1269, 2222,  926,  927
 4394, 1776, 1300, 2352, 2351
 4395, 1647, 1303,  410,  411
 4396, 2250,  574,  535,  575
 4397, 1299, 1776, 1300, 2352
 4398, 2252,  538,  577,  537
 4399, 2375, 1039, 1038,  999
 4400, 2401,  578,  577,  538
 4401, 2234,  515,  119,    7
 4402, 2234,  119, 1181,  215
 4403, 1902,  572,  573,  612
 4404, 2219,  578,  539,  579
 4405, 1970,  515, 2234, 1387
 4406, 1181, 2234, 1180, 1970
 4407, 1732, 1977,  964,  925
 4408, 1901,  611,  612,  651
 4409, 1787,  614,  613,  574
 4410,  514, 1386, 1387,  515
 4411, 2385,  156, 2371,  678
 4412, 2385,  679, 2384, 2467
 4413, 2385, 2371, 2315,  678
 4414, 2385,  155,  820,  156
 4415, 1231,  617,  577,  578
 4416, 1959, 1035,  996, 1036
 4417, 1632,  579,  540,  580
 4418, 2385, 2467,  820,  155
 4419, 2445,  179,  728,  727
 4420, 1633,  581,  541,  542
 4421, 1713, 1041, 1081, 1080
 4422, 1638, 1639,  412, 1444
 4423, 1627, 2066,  381, 1662
 4424, 1913, 2356, 2354,  724
 4425, 1638,  413, 1642, 1644
 4426, 1648, 1405, 1643, 2028
 4427, 1876,  615,  576,  616
 4428, 1645, 1641,  373,  412
 4429, 1635,  543,  582,  542
 4430, 1817,  584,  544,  545
 4431, 1645, 2392, 1643, 1642
 4432, 1645, 2277, 1643, 2392
 4433, 1207, 1074, 1035, 1075
 4434, 1645,  373, 1641, 2277
 4435, 2379,   46, 2316,  278
 4436, 1856, 2379, 1858, 2316
 4437, 2379, 1858,  855,  856
 4438, 2151,  583,  543,  544
 4439, 2220, 2314,  957,  996
 4440, 1968,  546,  585,  545
 4441, 1631, 1625,  308, 2321
 4442, 1843, 1635, 2311, 2151
 4443, 2066, 2303, 2067, 2237
 4444, 2313,  956,  995,  955
 4445, 2320, 1664,  379,  380
 4446, 1699,  699, 1915,  660
 4447, 1262,  301, 2089, 1263
 4448, 2002, 1489, 1358, 1367
 4449, 1631, 1625,  307,  308
 4450, 2320, 2317, 1665, 2124
 4451, 1601,  874,  835,  875
 4452, 1969,  547,  586,  546
 4453, 2023,  952,  913,  953
 4454, 1739,  949,  950,  989
 4455, 1815, 1919, 1814, 1916
 4456, 2434, 2363, 2032,  356
 4457, 1262, 2124, 1665, 2089
 4458, 1260,  550,  589,  549
 4459, 2320, 2317, 2124,  300
 4460, 2093, 2380, 2338,  865
 4461, 2142, 2338,  251,  248
 4462, 1293, 2094, 2227, 1289
 4463, 1554, 1558, 1559, 1917
 4464, 2093, 2095, 2096, 1289
 4465, 2142, 2094,  247, 2227
 4466, 1940, 2045, 2040, 2086
 4467, 1545, 1979, 1548, 1524
 4468, 2136, 1973, 2304, 1136
 4469, 2304, 1175, 2040, 1136
 4470, 1255,  589,  550,  590
 4471, 2434,   71, 2422,  830
 4472, 1880,   10,  205,  984
 4473, 1862,  869,  870,  909
 4474, 1254,  589,  590,  629
 4475,  206, 1947, 2460,  906
 4476, 1233,  435,  395,  396
 4477, 2136, 1979, 1521, 1973
 4478, 1936, 2433, 2039, 2304
 4479, 2181,  590,  551,  591
 4480, 1254,  589,  629,  628
 4481, 1247,  590,  591,  630
 4482, 1992, 2338, 2380, 2293
 4483, 2338, 2380, 2293,  864
 4484, 2338, 2293,   37,  864
 4485, 2338, 2380,  864,  865
 4486,  630,  591, 1985,  631
 4487, 1871, 1025,  985,  986
 4488, 2337,  248, 2142, 2094
 4489, 2093, 2096,  905,  866
 4490, 1272, 1340, 1273, 1278
 4491, 2344,  594,   20,  236
 4492, 1351, 1558, 1350, 1742
 4493, 2049, 2048, 1521, 1939
 4494, 1463,  643,  644,  683
 4495, 1814, 1969,  585, 1968
 4496, 1353, 1260,  549, 1740
 4497, 1815, 1814, 1968, 1969
 4498, 1966, 1353,  548, 2120
 4499, 1546,  561,  600,  560
 4500, 1705,  749,  788,  748
 4501, 2383, 2300, 1431, 2301
 4502, 2432,  747,  746,  198
 4503, 1298,  239,  242,  238
 4504, 2440, 2441, 2178, 1720
 4505, 2441, 1932,  171, 1148
 4506, 2441, 2178, 1148, 1147
 4507, 1550, 1547, 1974, 2419
 4508, 1546,  561, 2255,  600
 4509, 1507, 1548, 1056, 1057
 4510, 1524, 1523, 1506, 1518
 4511, 1671, 1778, 1099, 1777
 4512, 2166,  634,  595,  635
 4513, 1340, 1278, 1614, 1636
 4514, 1512, 1345, 1620, 1516
 4515, 1520,  597,  558,  598
 4516, 2055, 1019, 1020, 1059
 4517, 2256,  563,  602,  562
 4518, 1546,  600,  599,  560
 4519, 2049,  598,  599,  638
 4520, 2049, 1938,  636, 1939
 4521, 1518, 2044, 1525, 1545
 4522, 2049,  636,  597,  637
 4523, 2254,  938, 1618,  977
 4524, 2055, 1020, 2117, 1870
 4525, 1624, 1625, 2067,  307
 4526, 2281, 1093, 1054, 1094
 4527, 1627, 2066, 2237,  381
 4528, 1696, 1699, 2165,  661
 4529,  699, 1915, 1698, 1699
 4530, 1737,  564,  603,  563
 4531, 1626, 2326, 2237, 2067
 4532, 1699,  700, 1698,  699
 4533, 1697, 1915, 1699, 1698
 4534, 2049,  638,  637,  598
 4535, 1981,  560,  520,  521
 4536, 1595, 2429, 1594,  816
 4537, 1697,  760, 1696, 2235
 4538, 1468,  565,  566,  605
 4539, 2385,  156,  678,  155
 4540, 1433,  780,  741,  781
 4541, 1215, 1699, 1209, 1213
 4542, 1699, 1915, 1209,  660
 4543, 2451, 1168, 2465,  191
 4544, 2191, 1536, 1538, 1552
 4545, 1409, 1823, 2061, 1828
 4546, 2062,  967, 2069, 2061
 4547, 2455,  928, 2069, 1864
 4548, 1595,  816,  152,  151
 4549, 1457, 1965, 1453, 1452
 4550, 2455, 1864, 2069, 1408
 4551, 1835, 1823, 1409, 2063
 4552, 2154,  569,  608,  568
 4553, 2391,  967, 1006,  966
 4554, 2425, 2377, 2378, 1786
 4555, 2425, 1785, 1786, 2378
 4556, 2175,  606,  567,  607
 4557, 2425, 1786,  794,  793
 4558, 2425,  129, 2468,  705
 4559, 2459, 1970, 1184, 1971
 4560, 1598,  645,  685,  684
 4561, 1334,  736,  188,  737
 4562, 2459, 1970, 1971, 1972
 4563, 2459, 1970, 1972,  476
 4564, 2168,  649,  609,  610
 4565, 2459, 1970,  476,  118
 4566, 1901,  612, 1811,  651
 4567, 2459, 1184, 1970,  118
 4568, 1242, 2214, 1888, 1243
 4569, 2214, 2200, 1888, 1243
 4570, 1660, 1666, 1661,  457
 4571, 2296,   80, 2428,  348
 4572, 2469,  184,  183, 1160
 4573, 1233,  434, 1244,  395
 4574, 1232, 2212, 2032, 2343
 4575, 2177,  613,  612,  573
 4576, 1313, 1236,  349, 1716
 4577, 1232, 2032, 2397,  352
 4578, 1236,  348, 1312,  349
 4579, 2206, 2219, 2099, 2159
 4580, 2455, 1400,  929,  890
 4581, 1399, 2455, 2069, 1408
 4582, 1626, 2237, 1627, 2067
 4583, 1808,  569,  609,  608
 4584, 1229,  657,  617,  618
 4585, 1788,  614,  575,  615
 4586,  457,  496, 1666, 1661
 4587, 1399, 1402, 1401, 1667
 4588, 1453, 2068, 1405, 1400
 4589, 1399, 1405, 1453, 1406
 4590, 2455, 1400,  890, 2092
 4591, 1913,  725, 2354, 2463
 4592, 1231,  616,  577,  617
 4593, 1955,  698,  699,  135
 4594, 1960,  723, 2356,  724
 4595, 2290, 1736, 2245, 2244
 4596, 1907, 1960, 2356, 1913
 4597, 1633,  620,  580,  581
 4598, 2462,  688,  146,  687
 4599, 1206, 1960, 1913, 2357
 4600, 2184,  651,  652,  691
 4601, 2062,  927,  928,  967
 4602, 2258, 2187,  771,  772
 4603, 1925, 1226, 2278, 1228
 4604, 1226, 1908, 1774, 2463
 4605, 2169,  649,  688,  648
 4606, 2453,  690,  691,  143
 4607, 2177,  613,  573,  574
 4608, 1912, 1911, 1227, 1225
 4609, 1907, 2355, 1960, 1204
 4610, 1907, 1204, 1113, 1152
 4611, 1945,  964,  925,  965
 4612, 1259, 1366,  464, 1267
 4613, 1634,  582,  621,  581
 4614, 2137,  610,  650,  649
 4615, 2444,  178,  727,  726
 4616, 2356, 2354,  176, 1153
 4617, 1210, 1073, 1112, 1072
 4618, 1954, 1037, 1077, 1076
 4619, 1601, 2404, 2421,  835
 4620, 2014, 1601, 2078,  335
 4621, 1601, 2404, 2078, 2421
 4622, 2001, 1573, 2000, 2220
 4623, 1951, 1952, 1956, 1207
 4624, 2404, 2423, 2078, 2421
 4625, 2421, 2078,  335,  338
 4626, 2343, 2032, 1716,  353
 4627, 2364,  692,  652,  653
 4628, 2343, 2434, 2422,  830
 4629, 2441,  171,  170, 1147
 4630, 1561, 1840, 1563, 2313
 4631, 2357,  762,  763,  802
 4632, 2343, 2422, 1716, 1715
 4633, 2422, 1716,  350,  353
 4634, 1928, 1109, 1931, 1110
 4635, 1920,  624,  664,  663
 4636, 1214,  583,  622,  582
 4637, 1916,  586,  625,  585
 4638, 2165,  662,  622,  623
 4639, 1928, 1932, 1148, 1149
 4640, 2001, 1574, 2000, 1573
 4641, 1210, 1760, 2196, 1112
 4642, 2126, 2179, 1920, 1919
 4643, 1696, 2197, 2133, 2165
 4644, 2131, 1932, 1930, 2130
 4645, 1315,  168,  169,  717
 4646, 1814,  585, 1916,  624
 4647, 1352,  625,  586,  626
 4648, 1346, 1284, 1347, 1323
 4649, 1985,  630, 1247,  591
 4650, 1245, 1251, 1250, 1249
 4651, 2246, 2120, 2269,  510
 4652, 2193,  664,  625,  665
 4653, 1350, 1327, 1325, 1029
 4654, 1322, 1608, 1606, 1609
 4655, 1609,  627,  628,  667
 4656, 1249, 1067, 1327, 1610
 4657, 1215, 1915, 1697, 1206
 4658, 2055, 1527, 1059, 1677
 4659, 2054, 2149,  479, 1587
 4660, 1792,  986,  947,  987
 4661, 1247,  590,  630,  629
 4662, 1585, 2149, 2054, 1587
 4663, 1238, 1519, 1523, 1677
 4664, 1522, 1982, 2053,  519
 4665, 1797,  910,  949,  909
 4666, 2468,  129,  704,  705
 4667, 2295, 1681, 2259, 1680
 4668, 2231, 1886,  713,  714
 4669, 2464, 2295, 2259, 1680
 4670, 1261, 1269, 1271, 1658
 4671, 2295, 1336,  187, 1164
 4672, 2295,  735, 1681,  734
 4673, 2154, 2189,  568, 2175
 4674, 1462, 1472, 1468, 1536
 4675,  644, 1465, 1468, 1462
 4676, 1332, 1865, 1600, 1598
 4677, 2424,  127,  128,  706
 4678, 1910, 1971, 1387, 2210
 4679, 2377,  707,  667,  668
 4680, 2146,  534,  494,  495
 4681, 2347, 2394,  383,  382
 4682, 1825,  123, 1884, 1200
 4683, 1376,  121,  632,  593
 4684, 1183, 1184, 1180, 1971
 4685,  456,  457, 1661,  496
 4686, 2290,  495, 1661,  496
 4687, 1295,  233, 1304,  236
 4688, 2103,  595,  634,  594
 4689, 2289,  534,  495,  535
 4690, 1704, 1299, 1298, 1705
 4691, 1502, 1439, 1092, 2073
 4692, 2459, 1187, 2199, 1971
 4693, 2055, 2057, 1677, 1059
 4694, 1970, 1387, 1180, 1971
 4695, 1970,  118, 1181,  119
 4696, 2275,   24,  788,  749
 4697, 2411,  634,  635,  674
 4698, 1367, 2264,  462, 1490
 4699, 2331,  742,  741,  193
 4700, 2459, 1971, 1184, 1187
 4701, 2417, 2199,  116, 1190
 4702, 2417,  116, 2199,  398
 4703, 2199,  117,  116, 1187
 4704, 2043,  639,  638,  599
 4705, 2438,  748,  747,  199
 4706, 1319, 1320,  711,  712
 4707, 2308,  162,  827,    3
 4708, 1429,  641,  601,  602
 4709, 1974, 1546, 2044,  560
 4710, 1403, 1404,  209, 1140
 4711, 1404,  209,  163,    9
 4712, 2281, 2073, 1054, 1093
 4713, 1429,  641,  640,  601
 4714, 1404,  204, 1202,    9
 4715, 2107, 1056, 1507, 1548
 4716, 1404, 1321, 1202,  204
 4717, 2280, 1095, 1055, 1056
 4718, 1288, 2339,  360,  399
 4719, 1709, 1469, 1526, 1090
 4720, 1463, 1595, 1923,  682
 4721, 1288, 2233, 2339,  399
 4722, 1292, 2282,  243,  115
 4723, 2143, 2299,  361, 1292
 4724, 1892,  643,  603,  604
 4725, 2215, 1011, 2239, 1050
 4726, 2467,  680,  154,  679
 4727, 1292,  246,  114,  115
 4728, 2299,  361, 1292,  114
 4729, 1600, 1462, 1471, 1891
 4730, 2143, 1292, 2227,  246
 4731, 1524, 1057, 1058, 1097
 4732, 1274,  250, 2143, 2142
 4733, 1427,  780,  740,  741
 4734, 2427, 2429,  150,  815
 4735, 2467,  154,  155,  679
 4736, 1342, 1341,  255,  256
 4737, 1274, 1342, 2144, 2286
 4738, 1892,  643,  642,  603
 4739, 2427,  815, 1865, 1599
 4740, 1505, 1517, 1509, 1668
 4741,  606, 1467, 1465,  645
 4742, 1522, 2044, 1520,  559
 4743, 1467,  645,  606,  646
 4744, 2156, 1446, 1010, 1009
 4745, 1516, 1517,  481,  482
 4746, 1599,  816,  815,  776
 4747, 1974, 1981,  521,  560
 4748, 1499, 1013, 1014, 1053
 4749, 1859,  648,  608,  609
 4750, 2295,  734,  186,  735
 4751, 2381, 1668, 2108,  483
 4752, 1983,  558, 1520,  597
 4753, 1772,  148,  149,  685
 4754, 1821,  557, 2167,  556
 4755, 1519, 1937, 1521, 1973
 4756, 2152,  646,  607,  647
 4757, 1894,  646,  647,  686
 4758, 1836, 1007, 1047, 1046
 4759, 1522, 1981,  520, 1517
 4760, 1789,  536,  576,  575
 4761, 1938, 1983,  597,  596
 4762, 1859,  608,  648,  647
 4763, 2470,  686,  687,  147
 4764, 1823, 1834, 1824, 1822
 4765, 1863, 1879, 1887, 1909
 4766, 1690, 1687,  538, 2099
 4767, 1863, 1909, 1887,  214
 4768, 2447, 2234,  554, 2327
 4769, 2234, 2327, 1385,  554
 4770, 1811,  651,  612,  652
 4771, 2447, 1191, 2065, 1376
 4772, 2461,  688,  689,  145
 4773, 1863, 1869, 2065, 1887
 4774, 1585, 1587, 2054, 1237
 4775, 1773,  765,  726,  766
 4776, 1876,  576,  577,  616
 4777, 1229,  657,  656,  617
 4778, 1767,  615,  655,  654
 4779, 1988, 1984, 2327, 1385
 4780, 2447, 2065, 1191,  215
 4781, 1867, 1984, 2065, 1376
 4782, 1769,  654,  655,  694
 4783, 1228, 2116,  805,  766
 4784, 1228, 1913, 1925, 1226
 4785, 2184,  651,  691,  690
 4786, 2238, 2264, 1490,  461
 4787, 1240, 1821, 1820, 2148
 4788, 1924,  803, 1926,  138
 4789, 2464,  186,  185, 1162
 4790, 1926, 2114, 1224,  695
 4791, 2356,  724,  723,  175
 4792, 1228, 2114, 1926, 2393
 4793, 1926,  139, 2393,  695
 4794, 1950,  620,  659,  619
 4795, 2368, 2235,  722,  761
 4796, 2252, 2401,  577,  538
 4797, 1926,  138,  803,  139
 4798, 2082, 2267, 2270, 2418
 4799, 2343,  869,  830,  870
 4800, 1223,  616,  617,  656
 4801, 2082, 2418, 2270,  344
 4802, 2081, 2075, 2082, 2123
 4803, 1237, 1588,  227,  226
 4804, 2364,  692,  691,  652
 4805, 1634, 1209,  620,  621
 4806, 1213,  622,  661,  621
 4807, 2082, 2075,  343, 2123
 4808, 1698,  134,  699,  700
 4809, 2135, 1117, 1118, 1157
 4810, 1908, 1911, 1225, 1115
 4811, 1774, 1771, 2111, 2134
 4812, 2471,  722,  721,  173
 4813, 1228, 2278, 1926, 1224
 4814, 1228, 1913,  764, 1925
 4815, 1722, 1608, 1943, 2193
 4816, 2278, 2170,  618, 1229
 4817, 1960, 2368,  723,  762
 4818, 1923,  777,  817,  816
 4819, 1330, 1166, 1329, 1337
 4820, 1760, 1112, 1113, 1152
 4821, 2219, 1230,  579, 2170
 4822, 1221, 2134, 2205, 1768
 4823, 2158, 1087, 1873, 1872
 4824, 1773, 1222, 1221, 1228
 4825, 2128,  662,  701,  661
 4826, 1224,  696,  695,  656
 4827, 2252, 1788, 1789,  576
 4828, 1213,  660, 1209,  621
 4829, 1222, 1224, 2114, 1223
 4830, 2254, 1653, 2350,  937
 4831, 1653, 1780, 2350,  898
 4832, 1932,  720,  719,  171
 4833, 2095, 1839,  944, 1838
 4834, 2154, 1467,  607, 2152
 4835, 1849, 2008, 2005, 2004
 4836, 1322, 1250, 1612, 1606
 4837, 1697, 2368,  762,  761
 4838, 1652, 1653, 2254, 1654
 4839, 1696, 2133, 2128, 2165
 4840, 2165,  662,  661,  622
 4841, 1653,  936, 1565,  897
 4842, 1849, 1851, 1852, 2009
 4843, 2100, 2202, 1396, 1551
 4844, 2129,  624,  663,  623
 4845, 2153, 2155, 2223, 2189
 4846, 1351, 1966, 2120, 1353
 4847, 2128, 2165, 2129,  662
 4848, 1566, 1653, 1543, 1565
 4849, 1567, 1566, 1565, 1653
 4850, 2189,  568, 2175,  567
 4851, 2456,  131,  132,  702
 4852,  645,  644, 1598, 1467
 4853, 1933, 2154, 2153, 2223
 4854, 1609,  667,  666,  627
 4855, 1248, 2181, 1253, 2026
 4856, 1725, 1606, 1254,  628
 4857, 1827, 2154, 2223,  569
 4858, 2154,  568, 2223,  569
 4859, 2278,  697,  696,  657
 4860, 1874, 1684, 1859, 1808
 4861, 1827, 1808, 2154,  569
 4862, 1528,  670,  669,  630
 4863, 1960, 2355,  723, 2368
 4864, 2355, 2471, 1151,  174
 4865, 2356,  175, 1152,  176
 4866, 2355, 2471,  174,  722
 4867, 1760, 2355, 2471, 1151
 4868, 1702,  710,  709,  670
 4869, 1985,  631, 1528,  630
 4870, 1377,  122,  632,  121
 4871, 1377,  671,  632,  122
 4872, 1376,  121,  593,  120
 4873, 2355, 2471,  722, 2368
 4874, 2336, 2348,   29, 1061
 4875, 2105, 1101,  211, 1062
 4876, 2336,   28, 2351, 1100
 4877, 1989,  832,  872,  871
 4878, 2336, 1674, 1061, 1100
 4879, 1586, 2345,  982,  983
 4880, 2093, 2095, 1991,  904
 4881, 2095,  943, 1583, 1991
 4882, 1935, 2305, 1777, 1707
 4883, 1283, 1281, 1290, 1282
 4884, 1290, 1282, 1293, 2095
 4885, 1586,  944, 1839,  983
 4886, 1942,  635,  636,  675
 4887, 1296,  673,  672,  633
 4888, 1590, 1239,  225,  226
 4889, 2367, 2009,  270,  267
 4890, 1523, 2055, 1527, 1524
 4891, 1942,  674,  635,  675
 4892, 2472,  673,  674,  160
 4893, 2473,  825,  786,  826
 4894, 1851, 2009, 2367, 1852
 4895, 2472, 2474,  161,  826
 4896, 2315,  679,  678,  639
 4897, 1851, 2009, 1570, 1369
 4898, 1848, 1571,  407, 1851
 4899, 1571, 1566, 1651, 1568
 4900, 2093, 2094, 1289, 2096
 4901, 1542, 1398, 1543, 1396
 4902, 1126, 1328, 1165, 1329
 4903, 1939,  636,  676,  675
 4904, 2367, 1852, 2009,  267
 4905, 2364, 1806,  653,  652
 4906, 2453, 2452, 2364, 2188
 4907, 1775,  676,  158,  675
 4908, 1805, 2364, 2249, 2188
 4909, 2364, 1806,  652, 2184
 4910, 2345, 2348, 1022,   30
 4911, 1939, 2037, 1775, 2048
 4912, 1839,  225, 2345,   31
 4913, 1590, 1839, 1838,  222
 4914, 2384,  680,  679,  640
 4915, 2345,  225, 1239,  228
 4916, 1586, 1676,  982, 2345
 4917, 1760, 2196, 2471, 2368
 4918, 2196, 2261, 2471, 2235
 4919, 2235,  759, 2133, 2261
 4920, 2126, 2131, 2179, 1930
 4921, 2261, 1932,  172,  720
 4922, 2133, 2196, 2235, 2261
 4923, 1328, 1087, 1873, 1126
 4924, 2261, 2471,  173, 1150
 4925, 2123, 2122, 2415, 1310
 4926, 2123, 2415, 1312, 1310
 4927, 2428, 1312, 2415, 1310
 4928, 2123, 2415,  342,  345
 4929, 2439, 2302, 2465,  740
 4930, 1383,  552, 2181, 2026
 4931, 2447, 2234, 2065,  215
 4932, 1869, 2052, 1887, 1846
 4933, 1867, 1869, 2052, 1192
 4934, 1594, 2429, 1464, 1599
 4935, 1469, 1922, 1471, 1891
 4936, 1638, 1639, 1648, 1640
 4937, 2327,  553,  554,  593
 4938, 2172,  680,  641,  681
 4939, 1472, 1921, 2215, 2239
 4940, 2371,  157,  677,  156
 4941,  553, 1383, 1988, 1385
 4942, 1754, 2245, 1688, 1789
 4943, 1763, 2213, 1804, 1766
 4944, 1756, 1765, 1080, 1766
 4945, 1713, 1766, 1080, 1081
 4946, 2172,  682,  681,  642
 4947, 1933, 2156, 2262, 1934
 4948, 1595,  682,  151,  152
 4949, 1711, 1003, 1977, 1945
 4950, 1735, 2387, 2028, 1747
 4951, 2173, 1890,  778, 1923
 4952, 2427,  684,  685,  149
 4953, 1909, 1829, 1910, 1387
 4954, 1863, 1869, 1887, 1846
 4955, 1466, 2174, 1921, 1946
 4956, 1598,  645,  646,  685
 4957, 1863, 2065, 1384, 1385
 4958, 2288,   50,  851,   51
 4959, 2172,  779, 2173, 1890
 4960, 1863, 2065,  214, 1887
 4961, 1183, 1971, 1180, 1910
 4962, 1971, 1180, 1910, 1387
 4963,  515, 2234,  119, 1970
 4964, 2186,  689,  649,  650
 4965, 1894,  685,  646,  686
 4966, 2427,  150,  684,  149
 4967, 1808,  609,  569,  570
 4968, 2307, 2148,  230,  516
 4969, 2307, 2148,  227,  230
 4970, 1895,  686,  647,  687
 4971, 1589, 2148,  516,  517
 4972, 2054, 1589,  517, 2148
 4973, 2054, 1589, 2148, 1237
 4974, 2340,  438, 1287,  477
 4975, 1588, 2340, 1287, 1589
 4976, 1589,  478, 1287, 1587
 4977, 2211, 1971, 1186, 1183
 4978, 2454,  689,  690,  144
 4979, 2442,  730,  729,  181
 4980, 2211, 2362, 2361, 1186
 4981, 2214, 1888, 2362, 2211
 4982, 2199, 1971, 2211, 1972
 4983, 1204, 1075, 1114, 1074
 4984, 1295, 1304, 1820,  594
 4985, 1297, 2166, 2103, 2167
 4986, 1294, 1297, 1295,  235
 4987, 2466, 1161, 1162,  185
 4988, 2444, 1155, 1774, 1156
 4989, 2166, 2103, 2167,  595
 4990, 1821, 1820, 2148,  556
 4991, 1723, 2284, 1944, 1943
 4992, 2284, 2378, 2468,  705
 4993, 2284,  704, 2457, 1943
 4994, 1608, 2284, 1943,  665
 4995, 2075,  392, 2122, 2079
 4996, 2077, 2011, 2078, 1605
 4997,  721, 2235, 2261,  760
 4998, 2075, 2079, 2076,  392
 4999, 1888, 2199, 2211, 1972
 5000, 1220, 1753, 1752, 1758
 5001, 1950,  658,  619,  659
 5002, 1888, 2211, 2199, 2362
 5003, 2324, 1044, 1043, 1004
 5004, 2199, 1971, 1187, 2362
 5005, 1806,  653,  613,  614
 5006, 1544, 1534, 2231, 2232
 5007, 1735,   50, 2288,  290
 5008, 2231, 2232, 1142,  165
 5009, 2231, 1534, 1143, 1142
 5010, 1502, 1501, 1499, 1052
 5011, 1926,  138,  695,  696
 5012,  805, 1228, 2393, 2116
 5013, 2191, 2202, 1501, 2239
 5014, 2191, 2228, 1552, 1538
 5015, 2389,  140,  693,  694
 5016, 2218,  488, 2204, 2160
 5017, 1526, 1051, 2239, 1501
 5018, 2173,  818,  778,  779
 5019, 1211, 1929, 1816, 1845
 5020, 2389,  140,  141,  693
 5021, 2261,  760,  720,  721
 5022, 1272, 1277, 2144,  402
 5023, 1275, 1293, 1282, 1991
 5024, 1277,  401, 1276, 2144
 5025, 1915,  659,  660,  699
 5026, 1585, 2054, 2149, 2053
 5027, 1282, 2118, 1277, 1278
 5028, 1636, 2119, 1615,  941
 5029, 1519, 1778, 1670, 1937
 5030, 2136, 1935, 2304, 1973
 5031, 1938, 1983, 1937, 1520
 5032, 1929, 1071, 1072, 1111
 5033, 1936, 1521, 1939, 1938
 5034, 2049,  636, 1938,  597
 5035, 1938, 1983, 1520,  597
 5036, 1936, 2411, 1942, 2473
 5037, 1936, 1942, 1939, 1941
 5038, 2193,  625,  626,  665
 5039, 1926,  139,  695,  138
 5040, 1699,  700,  660,  661
 5041, 1938,  635, 1942, 2411
 5042, 2130,  758,  719,  759
 5043, 1938,  636, 1939, 1942
 5044, 2296, 2428, 1312,  348
 5045, 1235, 1312, 1244, 1310
 5046, 2428, 1244,  394,  395
 5047, 2128,  702,  701,  662
 5048, 2428,   81, 2415,  345
 5049, 1242, 1232, 2397, 1236
 5050, 1311, 2123, 1312, 1310
 5051, 2428,  394, 1244, 1310
 5052, 1243, 2296, 2431,  396
 5053, 1232, 2214, 2397, 2032
 5054, 1471, 1890, 1597, 1893
 5055, 2131,  718,  719,  758
 5056, 1924,  137,  138,  696
 5057, 2428,  395,   81,   80
 5058, 2428, 1310, 2415,  394
 5059, 2428,   81,  395,  394
 5060, 2228, 1650, 2101,  486
 5061, 2378,  705,  666,  706
 5062, 1543,  935, 1398, 1565
 5063, 1731, 1027, 1066, 1026
 5064, 1395, 1569, 2101, 1568
 5065, 1395, 2101, 1569, 2160
 5066, 2101, 1569, 2160,  448
 5067, 1764, 1119, 2260, 1118
 5068, 1080, 1764, 1219, 1766
 5069, 2451, 1167,  191,  190
 5070, 1754, 2098, 1755, 1757
 5071, 1763, 1878, 1770, 1771
 5072, 2090,  668,  669,  708
 5073, 2128,  702,  662,  663
 5074, 1768, 2111, 2209, 1757
 5075, 1755, 1040, 1757, 2098
 5076, 2111, 1757, 1078, 2209
 5077, 2347, 2237, 2326, 2394
 5078, 1884, 1702,  671,  710
 5079, 2066,  306,   94,   95
 5080, 1491, 1628, 1629, 1656
 5081, 1943,  665,  704,  664
 5082, 1702,  709,  708,  669
 5083, 1627,  420, 2237,  421
 5084, 1627,  381, 2237,  420
 5085, 2347,  382, 2237, 2394
 5086, 2238, 2347,  421, 2237
 5087, 1463,  643,  683,  682
 5088, 1732, 1266,  924, 1976
 5089, 1734, 1736, 1977, 1733
 5090, 1917, 1070, 1069, 1030
 5091, 2252, 1789,  537,  576
 5092, 2173,  817,  153,  152
 5093, 2181,  591,  551,  552
 5094, 1692, 1754, 1734, 1687
 5095, 1692, 2097, 2401, 2206
 5096, 2141, 1712, 2139, 1758
 5097, 2046, 2371, 2038, 2358
 5098, 1884,  671,  122,  123
 5099, 1404,  209, 1140,  163
 5100, 2038, 2037,  823,  784
 5101, 2038,  823, 2037, 2358
 5102, 2410,   69,   68,  833
 5103, 1940, 2041, 2045, 2086
 5104, 1867, 2052, 1978, 1195
 5105, 2173,  817,  778,  818
 5106, 2049, 2043,  599, 2044
 5107, 1825, 1200, 1826,  202
 5108, 2288,  290,   51,  293
 5109, 2430,  160,  159,  824
 5110, 2042, 1438, 2315, 2046
 5111, 2240,  324, 2015,  325
 5112, 2430,  674,  675,  159
 5113, 2254,  976,  937,  977
 5114, 1995, 1357,  322, 2017
 5115, 2015, 2403, 2325, 2446
 5116, 2240, 2015,  324, 2403
 5117, 2015, 2403, 2446,  321
 5118, 2237, 2394,  382, 2303
 5119, 2326, 2067,  310,  309
 5120, 2238,  421, 2347,  422
 5121, 2347, 2237,  382,  421
 5122, 2347,  383, 2396, 2264
 5123, 2238, 2347, 2264,  422
 5124, 1579, 1577, 1582, 2243
 5125, 2242, 2241,  329, 2319
 5126, 1451,  529, 2230,  490
 5127, 2171, 1986, 1063, 1728
 5128, 1448,  491, 1445, 1450
 5129, 2224, 2155, 2203, 2190
 5130, 2189, 1451, 2223,  529
 5131, 2224, 2189,  528, 2230
 5132,  681, 2173,  818,  153
 5133, 1793, 1234, 1242, 1241
 5134, 1861, 1232, 2212, 2214
 5135, 1243, 2431,  397,  396
 5136, 1233, 1243,  396, 2296
 5137, 2431, 1236, 2397,  351
 5138, 2296,   79, 2431,  396
 5139, 1243,  397, 2431, 2200
 5140, 1243, 2397, 2214, 2200
 5141, 2383,  153,  680,  681
 5142, 2296,   80,  351,   79
 5143, 1242, 2214, 1243, 2397
 5144, 1243, 1888,  436,  397
 5145, 1243, 1888,  397, 2200
 5146, 2214, 2360, 2398, 2397
 5147, 2123,  346, 1312,  345
 5148, 1233, 1234,  434,  435
 5149, 1243,  435, 1888, 1241
 5150, 1261, 1262, 1264, 1266
 5151, 1243, 1888,  435,  436
 5152, 1243, 2431, 1236, 2397
 5153, 1390, 1792, 1389, 1388
 5154, 2458, 2090,  708, 2426
 5155, 1962,  292,  296,  295
 5156, 2121, 2162,  911, 2341
 5157, 1797, 1795,  949,  910
 5158, 1797, 1796,  948,  949
 5159, 1791, 1314, 1234, 1379
 5160, 1314, 1831,  473, 1379
 5161, 1862, 1794,  909, 1797
 5162, 1923,  777,  778,  817
 5163, 1793, 1794, 1862, 1797
 5164, 2117,  980, 2119,  981
 5165, 1632,  580, 2170,  579
 5166, 2429,  151,  683,  150
 5167, 2048,  677,  676,  637
 5168, 2118, 2117, 1583, 1870
 5169, 1278, 1636, 1996, 2119
 5170, 1278, 1615, 1636, 2119
 5171, 1907, 1154, 2354, 1153
 5172, 1907, 1152, 2356, 2355
 5173, 1907, 1206, 1960, 1913
 5174, 2452,  692,  142,  691
 5175, 2356, 2355,  175,  723
 5176, 2354,  725,  176,  177
 5177, 1812,  771,  731,  732
 5178, 2356,  176, 2354,  724
 5179, 2079, 2080, 2075, 2074
 5180, 2074, 2271, 2082, 2404
 5181, 2020, 2271, 2077, 2022
 5182,  430, 2021,  470, 2080
 5183, 2075, 2122,  392, 2414
 5184, 1311, 1412, 2081, 2163
 5185, 2079, 2076,  392,  391
 5186, 1424,  391, 1604, 2079
 5187, 1851, 2370, 1853, 1852
 5188, 1852, 2004,  265,  264
 5189, 2455,  928, 1864,  889
 5190, 1851, 2370,  368, 1853
 5191, 2354,  177,  176, 1153
 5192, 2370, 2369, 1853, 2004
 5193, 2370,  108,  264,  267
 5194, 2004, 1853, 2034, 2033
 5195, 1542, 2100, 1395, 1396
 5196, 1849, 2008, 1653, 1780
 5197, 2261,  172, 1149,  173
 5198, 2370, 2004, 1852,  264
 5199, 1697,  800,  799,  760
 5200, 2033, 2369, 1853,  367
 5201, 2114,  695,  694,  655
 5202, 1848, 1566, 1849, 2008
 5203, 2370, 1853,  367,  368
 5204, 1207, 1075, 1035, 1036
 5205, 1261, 1266, 1264,  886
 5206, 2194, 2051,  299, 1263
 5207, 1698, 1703,  134,  700
 5208, 1262, 1263, 1264, 1631
 5209, 1262, 1631, 1264, 2359
 5210, 1631, 2124,  304, 1624
 5211, 1631, 1264, 2359, 2321
 5212, 1264,  846, 2359, 2321
 5213, 1266,  885, 1264,  886
 5214, 1928, 1150, 1110, 1111
 5215, 1266, 2359, 1264,  885
 5216, 2127,  703,  663,  664
 5217, 1491, 2238, 1490, 1486
 5218, 2219, 2099, 2159,  539
 5219, 2206, 2236, 2375, 1483
 5220, 2221, 2159, 2206, 2099
 5221, 1692, 2252, 1687, 2099
 5222, 1743,  950,  990,  989
 5223, 2097, 1957, 2206, 2375
 5224, 1452, 1410, 1458, 1456
 5225, 1452, 1461, 1459, 1965
 5226, 1459, 1460, 1456,  416
 5227, 1856, 1306,  280, 2029
 5228, 1648, 1640,  286, 1643
 5229, 1932, 1148, 1149,  172
 5230, 2030,  279, 1380, 1306
 5231, 1549, 1135, 1134, 1095
 5232, 2420, 1703,  133,  798
 5233, 1301, 1647, 1307, 1306
 5234, 2425,  706,  128,  705
 5235, 1961,  136,  697,  698
 5236, 1640, 2277, 1645, 1641
 5237, 2231, 2232,  165,  713
 5238, 1640, 2277, 1641, 2276
 5239, 1648, 1643,  286, 2028
 5240, 1649, 1746, 2342, 1441
 5241, 2085,  744,  783,  743
 5242, 1325,  990, 1029,  989
 5243, 1645, 2277,  374,  373
 5244, 2426,  708,  126,  707
 5245, 1301, 1393, 1646, 1391
 5246, 1640,  285, 1643, 2277
 5247, 1641, 2276,  373,  372
 5248, 1386, 2210, 1388, 1387
 5249, 1452, 1962, 1461, 1965
 5250, 2458,  709,  125,  708
 5251, 1453, 1864, 2455, 1408
 5252, 2013,  377, 1459, 2333
 5253, 1315,  169,  168, 1145
 5254, 1261, 1271, 1265, 1658
 5255, 1459, 1461, 2333, 1965
 5256, 1461, 2089,  297,  298
 5257, 1270, 1461,  298, 2089
 5258, 2013, 1460,  377,  378
 5259, 1701,  709,  710,  124
 5260, 1461, 1965,  294, 2333
 5261, 1459, 2287, 1965, 2333
 5262, 1660, 1460,  417, 1456
 5263, 1402, 2455, 1400,  929
 5264, 1271, 1660, 1456, 1460
 5265, 2013, 2317, 1460,  378
 5266, 1871, 1986, 2025, 1384
 5267, 2013,   98,  378,  377
 5268, 1825,  124,  202,  789
 5269, 1459, 1460,  416,  377
 5270, 2458,  125,  126,  708
 5271, 1460, 1456,  416,  417
 5272, 1647, 1306, 1380, 1307
 5273, 1647,  372, 1380, 2276
 5274, 1380,  103, 2276,  372
 5275, 1380,  276, 1306,  279
 5276, 2438, 1707, 2305, 2433
 5277, 2437, 2438, 2306, 1177
 5278, 1936, 2433, 1707, 2473
 5279, 2110, 1497,  524,  485
 5280, 2426,  126,  127,  707
 5281, 2106, 2108, 1619, 1652
 5282, 1701,  124,  125,  709
 5283, 2106, 1509, 1550, 1511
 5284, 2424,  127,  706,  707
 5285, 2109, 2110,  485, 1497
 5286, 2207, 2208, 1617, 1621
 5287, 2106, 2071, 2072, 1494
 5288, 1339, 1280, 1343,  403
 5289, 1343,  403, 1280,  364
 5290, 1825,    8,  202,  124
 5291, 2207, 1622, 2034, 1621
 5292, 2033, 1896, 2004,  261
 5293, 2424, 2425, 2377,  706
 5294, 2036,  784,  744,  745
 5295, 2372, 2377,  668, 2090
 5296, 1782, 2377, 1786, 2378
 5297, 1725, 2377, 2378,  667
 5298, 2085,  783,  782,  743
 5299, 1885, 2377, 2090, 2390
 5300, 1839, 1239, 2345,  225
 5301, 2216, 2201, 1446,  971
 5302, 1848, 2035, 1850, 2008
 5303, 1852, 1849, 2005, 2004
 5304, 2039,  784,  745,  785
 5305, 2033,  366, 2369,  367
 5306, 2035,  405, 1622, 2034
 5307, 1344, 2208, 1781, 2329
 5308, 2207, 2033,  405,  366
 5309, 1988,  552,  592,  591
 5310, 1852, 2009,  267,  268
 5311, 2377,  667,  707,  706
 5312, 1852,  268, 1849, 2009
 5313, 1725,  668,  667,  628
 5314, 2369,  367,  109,  108
 5315, 2035,  405, 2033,  406
 5316, 2369,  367,  366,  109
 5317, 1700, 1200, 1825, 1884
 5318, 1321,  204, 1201, 1202
 5319, 1894, 1895,  647, 1859
 5320, 1598, 1894,  685,  646
 5321, 2343, 2010,  870, 1715
 5322, 1321,  750,  203,  204
 5323, 1319, 1140,  164,  163
 5324,  906, 1947, 1829,  907
 5325, 2039, 2432,  746, 2297
 5326, 1685, 1894, 1895, 1897
 5327, 1894,  686, 1895, 1772
 5328, 1894, 1865, 1772, 1897
 5329, 1796,  988,  987,  948
 5330,  770, 2185, 1750, 2188
 5331, 1750, 1218, 1812, 2469
 5332, 1805, 2248, 1750, 2188
 5333, 1750,  730, 2248, 2475
 5334, 1750, 1812,  731, 2469
 5335, 1332, 1467, 2152, 1894
 5336, 1324,  627,  587,  588
 5337, 1598, 1894, 2427,  685
 5338, 1598, 2427, 1865, 1599
 5339, 1909, 1180, 1179,  213
 5340, 2427, 1599, 2429,  815
 5341, 1598,  684, 2427, 2429
 5342, 2331, 2439, 1427, 1425
 5343, 2427,  814,  815,  150
 5344, 2427, 1894, 1772,  685
 5345, 1865, 1897,  814, 1772
 5346, 1865, 1599,  815,  776
 5347, 2211, 1971, 2362, 1186
 5348, 1949,  828,  829,  868
 5349, 1971, 2362, 1186, 1187
 5350, 1319,  164,  712,  163
 5351, 2459,  117, 1187, 1184
 5352, 1319, 2232,  164, 1141
 5353, 1888,  397, 2199,  436
 5354, 2440,  718,  717,  169
 5355, 1888,  436, 1972,  475
 5356,  475, 1888, 1386, 1972
 5357, 2281, 2280, 1094, 1055
 5358, 2425,  128,  129,  705
 5359, 1735, 2068,  851,  852
 5360, 2459,  118,  117, 1184
 5361, 1861, 2211, 1386, 1888
 5362, 1260,  589,  588,  549
 5363, 2378,  666,  667,  706
 5364, 2360, 2435,  359, 2363
 5365, 1987, 1248, 2181, 1247
 5366, 1560,  506, 2150, 1593
 5367, 1403,  209, 1202, 1199
 5368, 1562, 1560, 1968, 1817
 5369, 2025,  987, 1026,  986
 5370, 1560, 1968, 1817,  545
 5371, 1348, 1607, 1352, 1323
 5372, 2001, 2314, 2309, 1714
 5373, 1327, 1068, 1028, 1029
 5374, 2192, 1025, 1065, 1064
 5375, 1259, 1592,  465, 1256
 5376, 2095, 1838,  944,  905
 5377, 2093, 2142, 2338, 2380
 5378, 2095, 1838,  905, 2096
 5379, 2093, 2095, 1293, 1991
 5380, 2039, 2037,  784,  785
 5381, 1992, 2380, 2294, 2293
 5382, 2094, 2227,  244,  247
 5383, 2468,  129,  130,  704
 5384, 2426,  792,  127,  791
 5385, 2105, 1729,  211, 1196
 5386, 1886,  752,  713,  753
 5387, 1700, 2064, 1980, 1198
 5388, 2322,  714,  166,  715
 5389, 2234,  119, 1970, 1181
 5390, 1608,  666,  665,  626
 5391, 1692, 2252, 2097, 1754
 5392, 1978, 1403, 2105, 1728
 5393, 2130, 2131,  719,  758
 5394, 1403, 2105, 1728, 1101
 5395, 2105, 1062, 1728, 1101
 5396, 1628, 1976,  884, 2359
 5397, 1628,  845, 2359,  884
 5398, 1623, 1976, 1628, 2359
 5399, 1628,  845, 2395, 2359
 5400, 1730, 1883, 1727, 1066
 5401, 2434, 2032, 2363,  829
 5402, 2284,  705,  704,  665
 5403, 1608,  666,  626,  627
 5404, 2346, 1625, 2395,  311
 5405, 2263, 1993, 2326,  313
 5406, 1253, 1831, 1379,  512
 5407, 1623, 1630, 1627, 1488
 5408, 1324,  587,  627,  626
 5409, 2322,  167,  715,  166
 5410, 1242, 1243, 1888, 1241
 5411, 1625, 2395, 2321, 2359
 5412, 1625,  308, 2395,  311
 5413, 1623, 1488, 1629, 1976
 5414, 2400, 1656,  843,  844
 5415, 1069, 1721, 1930, 1918
 5416, 2317, 1665,  378,  379
 5417, 2050, 1270, 2104, 1269
 5418, 2051,  298, 1461,  295
 5419, 2317, 2124, 2089, 1665
 5420, 1554, 1354, 1967, 1966
 5421, 2457,  703,  130,  131
 5422, 1476, 1477, 2021,  469
 5423, 2457,  130,  703,  704
 5424, 1478, 2020, 1741, 2024
 5425, 2021, 2269,  470, 2268
 5426, 1478, 2021, 1476, 1477
 5427, 1608, 2193,  665, 1943
 5428, 1317,  715,  716,  755
 5429, 1413, 1578, 1579, 1417
 5430, 1577, 2243, 2242, 2405
 5431, 1258, 1256, 1259, 1576
 5432, 2405, 1359,  879, 1361
 5433, 2405, 1361,  879,  840
 5434, 2242, 2017, 2409,  326
 5435, 2001, 2198, 1378, 1267
 5436, 2405, 1361,  840, 2409
 5437, 1721, 2178, 1718, 1108
 5438, 2181, 1255,  590, 1254
 5439, 2405,  839, 2243, 2319
 5440, 2025, 1792, 1248, 1745
 5441,  759,  760,  720, 2261
 5442, 1785,  755,  756,  795
 5443, 2456,  131,  702,  703
 5444, 1315,  716,  168,  717
 5445, 2405,  878, 2243,  839
 5446, 1698,  134,  135,  699
 5447, 1360, 1361, 2405, 2017
 5448, 2242, 2017,  326,  325
 5449, 2440,  170,  718,  169
 5450, 2420,  132,  701,  702
 5451, 2420,  132,  133,  701
 5452, 1573,  918, 1359, 2000
 5453, 2127,  663,  703,  702
 5454, 1109, 1148, 1930, 1108
 5455, 2441,  719,  718,  170
 5456, 2242,  329, 2241,  328
 5457, 1360, 1577, 2017, 2405
 5458, 1928, 1109, 1149, 1148
 5459, 1920,  663, 2129,  624
 5460, 2242, 2405, 2409, 2017
 5461, 1961,  136,  137,  697
 5462, 2172, 1892,  643,  642
 5463, 1470, 1709, 1426, 1893
 5464, 1381,   52,   51,  850
 5465, 1386,  475,  515,  514
 5466, 1932,  172,  171, 1148
 5467, 2420, 2456,  797,  132
 5468,  818,  779, 2173, 2172
 5469, 2441, 1932, 2131,  719
 5470, 1463, 2172,  643,  682
 5471, 2300, 2172,  818, 2383
 5472, 1907, 1204, 1911, 1114
 5473, 2278,  657,  658,  697
 5474,  818,  681, 2383, 2172
 5475, 1463, 2172, 1890, 1892
 5476, 1645, 1642,  374, 2392
 5477, 1915,  659,  699,  698
 5478, 2030, 2276, 1640, 1641
 5479, 1952, 1207, 1036, 1075
 5480, 1960,  724,  763,  723
 5481, 1648, 1309, 2226, 2029
 5482, 1640, 2277,  282,  285
 5483, 2111, 2134, 2209, 1078
 5484, 1692, 1755, 2236, 1733
 5485, 2097, 2098, 1754, 1757
 5486, 2471, 1150, 1151,  174
 5487, 1692, 2236, 1755, 2098
 5488, 1698,  800,  135,  799
 5489, 1292, 2328, 1291, 2227
 5490, 2393,  139,  694,  695
 5491, 2235,  760,  721,  761
 5492, 2471,  174,  173, 1150
 5493, 1292, 2282,  115,  360
 5494, 2282,    2,  115,  360
 5495, 2393,  694,  139,  140
 5496, 2282,   13,  243,    2
 5497, 2282, 2328,   13,  218
 5498, 2339, 1292, 2282, 1291
 5499, 1905, 1085, 2157, 1124
 5500, 2355,  175,  723,  174
 5501, 1697,  800,  761,  801
 5502,  773, 1898, 1680, 2283
 5503, 1686, 1333, 1681, 2259
 5504, 2356,  176,  724,  175
 5505, 1802, 1086, 2262, 1872
 5506, 2137, 1809, 1906,  610
 5507, 2388,  141,  142,  692
 5508, 2388,  141,  692,  693
 5509, 1900, 1759, 1752, 2140
 5510, 2140, 2139, 1083, 1758
 5511, 2140, 1752, 2141, 1758
 5512, 2395,  308,   56,   57
 5513, 1628, 1625, 2359, 2395
 5514, 1625, 2321, 2395,  308
 5515, 2113,  654,  693,  653
 5516, 2354,  725,  724,  176
 5517, 1631, 1625, 2321, 2359
 5518,  539, 2159,  500, 2099
 5519, 2452,  142,  143,  691
 5520, 2251, 2349, 2245, 1945
 5521, 2346,  310, 1625,  311
 5522, 2346, 2326,  310,  313
 5523, 2395,  308,   57,  311
 5524, 1891, 1946, 1088, 1127
 5525, 2190, 2224, 1552, 2204
 5526, 1708, 1470, 1536, 1526
 5527, 1925,  802,  763,  803
 5528, 1709, 1469, 1090, 1129
 5529, 1913,  764,  763,  724
 5530, 1767,  655,  615,  616
 5531, 1709, 1090, 1526, 1091
 5532, 1911, 1115, 1075, 1076
 5533, 1789,  576,  536,  537
 5534, 1469, 1129, 1893, 1922
 5535, 1350, 1742,  990, 1743
 5536, 1353,  587, 1354,  548
 5537, 1757, 1040, 1079, 1039
 5538, 2012,  178,  726,  177
 5539, 2444, 1155, 1156,  179
 5540, 1285, 1350, 1743, 1742
 5541, 2290, 1659, 1666, 1661
 5542, 1347, 1917, 1069, 1030
 5543, 1611, 1918, 1069, 1917
 5544, 1348, 1611, 1347, 1917
 5545, 1275, 1277, 1282, 1283
 5546, 1275, 1274, 1276, 2143
 5547, 1274, 2286, 2299,  249
 5548, 1274, 2299, 2286, 1276
 5549, 1807,  615,  654,  614
 5550, 2393,  805,  140,  804
 5551, 1276, 2286, 2144,  362
 5552, 1313, 1232, 1715, 2010
 5553, 2444,  727,  178,  179
 5554, 1233, 1235, 1236, 1244
 5555, 1230,  618,  578,  579
 5556, 2200, 2397, 2214, 2398
 5557, 1809, 1799,  571,  570
 5558, 1236, 2397,  351,  352
 5559, 2445,  728,  179,  180
 5560, 2453,  690,  143,  144
 5561, 1453, 1408, 1454, 1864
 5562, 2443,  728,  180,  729
 5563, 1242, 2397, 1243, 1236
 5564, 2343, 2434,  353, 2422
 5565, 2422,  831, 2016, 1715
 5566, 1756, 1079, 1040, 1080
 5567, 1228, 1925, 1926, 2278
 5568, 2343, 1715,  870,  831
 5569, 1231, 2252, 2401,  577
 5570, 2249, 2248,  769,  768
 5571, 2443,  729,  180,  181
 5572, 1862,  870, 2343, 2010
 5573, 2475,  731,  730,  182
 5574, 1232, 1716, 2343, 2032
 5575, 2422,   71,  353,  350
 5576, 2032,  829, 2343, 2212
 5577, 1232, 1862, 2343, 2010
 5578, 2113,  653,  693,  692
 5579, 1417, 1418, 2014, 2241
 5580, 2454,  689,  144,  145
 5581, 2376,  767,  728,  768
 5582, 1813,  650,  690,  689
 5583, 1813,  651,  690,  650
 5584, 2074, 2076, 2075, 2079
 5585, 2074, 2404, 2423, 2078
 5586, 2011, 2078, 1601, 2022
 5587, 2011, 2014,  334, 1419
 5588, 1905, 1124, 1084, 1085
 5589, 2442,  182,  181, 1158
 5590, 1601, 2404,  835,  874
 5591, 2082, 2404, 2267,  834
 5592, 1750, 2248,  769, 2188
 5593, 2074, 2078,  338,  337
 5594, 2443, 1157,  181,  180
 5595, 2364, 2184,  652,  691
 5596, 2254, 1618,  938, 2329
 5597, 2186,  649,  689,  688
 5598, 2125, 1712, 1751, 1766
 5599, 1505, 2107, 1510, 1507
 5600, 2137,  650,  610,  611
 5601, 2349, 1004, 1043, 1003
 5602, 2106, 2253, 2071, 1494
 5603, 1515, 1523, 1508, 2055
 5604, 1618, 2382, 1616,  939
 5605, 1711, 1712, 1042, 2349
 5606, 1618, 1616,  978,  939
 5607, 2475,  183,  731,  182
 5608, 1502, 2070, 2073, 1053
 5609, 2208, 1622, 2034, 2008
 5610, 2461,  688,  145,  146
 5611, 2469,  732,  731,  183
 5612, 1752, 1753, 1811, 2177
 5613, 2254,  976, 1654,  937
 5614, 1543, 1653,  936, 1565
 5615, 1543,  975, 1503,  974
 5616, 1222, 2116, 1228, 1773
 5617, 2462,  146,  147,  687
 5618, 2168,  649,  648,  609
 5619, 2064, 1198, 1197, 1194
 5620, 1906, 1801,  572,  571
 5621, 1231, 1876,  616, 1767
 5622, 2185,  771,  810,  770
 5623, 2258,  732,  772,  771
 5624, 2134, 1771, 2111, 1768
 5625, 2169,  648,  688,  687
 5626, 2466,  185,  733,  184
 5627, 1223, 1769,  655, 2114
 5628, 1375,  631,  632,  671
 5629, 1678, 1684, 1686, 2157
 5630, 2219, 1231,  578, 1230
 5631, 2295,  735,  186,  187
 5632, 1809,  570,  610,  609
 5633, 1837, 1046, 1006, 1007
 5634, 1661, 2147, 2060, 2225
 5635, 1869, 2065, 1887, 1192
 5636, 2228, 1495, 1497,  525
 5637, 1492, 1495, 1494, 1497
 5638, 1496, 1498, 1650, 1497
 5639, 2470,  686,  147,  148
 5640, 2187,  772,  811,  771
 5641, 1619, 1618, 2254, 2329
 5642, 1493, 1430, 2256, 1737
 5643, 1494, 2070, 2272, 2253
 5644, 2283,  773,  812,  772
 5645, 1681, 1898,  773,  774
 5646, 1338,  737,  776,  736
 5647, 1219, 1120, 1119, 1080
 5648, 2215, 2158, 1049, 2174
 5649, 1398,  895,  935,  934
 5650, 2194, 2104,  848, 1382
 5651, 2194, 1263,  299,  302
 5652, 1631,  305, 2195, 2321
 5653, 2194,  299, 2051, 1382
 5654, 1672, 1821, 2167, 1820
 5655, 2153, 1472, 1553, 1465
 5656, 2344,  633,   20,  594
 5657, 1336,  735,  187,  736
 5658, 2166,  634, 2103,  595
 5659, 1294, 2273,  239, 2344
 5660, 1294, 2273, 2103, 1296
 5661, 2439, 2465, 2302, 2091
 5662, 2450,  737,  189,  738
 5663, 1594, 1597, 1471, 1923
 5664, 2273, 2103, 1296,  633
 5665, 2102, 1675,  229,  232
 5666, 2103,  634, 1296,  633
 5667, 1335,  735,  736,  775
 5668, 1335,  735,  775,  774
 5669, 1704, 2306, 1299, 1705
 5670, 1418, 2241, 1579, 1602
 5671, 1329, 1127, 1166, 1126
 5672, 2138, 1084, 1044, 1045
 5673, 1336,  188,  736,  187
 5674, 1669, 1238, 1677, 1670
 5675, 1419,  333, 1605, 1604
 5676, 1642,  414,  374,  375
 5677, 2402,  895,  856,  896
 5678, 1418, 1613, 1421, 2011
 5679, 1581, 1423,  389, 2412
 5680, 1417, 2241,  331,  328
 5681, 1974,  561,  560,  521
 5682, 1419, 1417,  331,  330
 5683, 2028,  290,  286,  287
 5684, 2283,  812,  811,  772
 5685, 2031,  272,  275,  271
 5686, 1474, 1480, 1476, 1560
 5687, 1473, 1474, 1475, 1710
 5688, 1639,  411, 1641,  412
 5689, 1476, 1560, 1480,  507
 5690, 1827,  569, 2223,  530
 5691, 1415, 1593,  466,  467
 5692, 1564, 1479, 1475,  954
 5693, 1258, 1360, 1358, 1574
 5694, 1675,  228, 1239,  229
 5695, 1685, 1681, 1333, 1335
 5696, 1365,  841, 1361, 2406
 5697, 1365, 1361, 1995, 2406
 5698, 1655, 1994, 2399, 1365
 5699, 1980, 1198, 1199, 1202
 5700, 2102,  229, 1239, 1237
 5701, 2450,  738,  189,  190
 5702, 1463,  604,  644,  643
 5703, 2429,  816, 1595,  151
 5704,  777,  816, 1923, 1594
 5705, 1334, 1335, 1336,  736
 5706, 1594, 1464, 2429, 1595
 5707, 2439,  193,  741,  192
 5708, 1458,  454,  415,  455
 5709, 1365, 2399,  842,  841
 5710, 1696, 1698,  700, 1703
 5711,  926, 1658, 1945, 2222
 5712, 1283,  401,  440,  400
 5713,  799, 1697,  760, 1696
 5714, 1798, 1904, 1905, 2157
 5715, 1469, 1089, 1090, 1129
 5716, 1396,  973,  934,  974
 5717, 2230,  489, 2217,  490
 5718, 1215, 2197, 2235, 1697
 5719, 1544, 1320, 1533, 2232
 5720, 2189, 1465,  567, 2175
 5721, 1438, 2384, 2315,  640
 5722, 1598,  685, 2427,  684
 5723, 1597,  738,  778,  777
 5724, 1915, 1955, 2357, 1961
 5725, 1955, 2357, 1697, 1915
 5726, 1697, 1955,  800,  801
 5727, 1697,  800, 1955, 1698
 5728, 1205, 1206, 1912, 1950
 5729,  645, 1467, 1465,  644
 5730, 1737,  603,  602,  563
 5731, 2381,  483,  523,  522
 5732, 2072,  523,  563,  562
 5733, 2465,  192,  191, 1168
 5734, 1206, 1215, 1915, 1209
 5735, 1494, 2070, 2229, 2272
 5736, 1963,  288,  289,  292
 5737, 2172,  681,  641,  642
 5738, 1603, 1602, 1582,  877
 5739, 1601,  335, 2421, 2078
 5740, 2014,  332, 2407,  335
 5741, 1418, 2014, 1602, 1601
 5742, 1601, 1613,  875,  876
 5743, 1964, 1735, 2068, 2288
 5744, 1643,  289, 2028, 1963
 5745, 1442, 1393, 2216, 1646
 5746, 2027, 2028, 2387, 1747
 5747, 2385,  155,  678,  679
 5748, 1405, 1964, 2028, 2068
 5749, 2315,  679,  639,  640
 5750, 1405, 2028, 1747, 2068
 5751, 2331,  194,  193, 1170
 5752, 1650,  486, 1497,  485
 5753, 1470, 1471, 1469, 1893
 5754, 1434, 1133, 1172, 1132
 5755, 2329,  899,  900,  939
 5756, 1453, 1964, 2068, 2092
 5757, 2285, 2006, 2374,  857
 5758, 1504, 1305, 1856, 1855
 5759, 1431,  602,  642,  641
 5760, 1697,  760, 2235,  761
 5761, 1728, 1062, 1023, 1063
 5762, 1955, 1698,  135,  699
 5763, 1425, 1171, 1131, 1132
 5764, 1955, 1698,  800,  135
 5765, 2084,  742,  782,  781
 5766, 1955, 2357, 1961,  801
 5767, 1955,  136, 1961,  698
 5768, 2332,  743,  194,  195
 5769, 2472,  161,  160,  825
 5770, 2449,  744,  743,  195
 5771, 2374, 2402,  856,  857
 5772, 1938,  636,  635,  596
 5773, 1567, 1854, 2402, 1398
 5774, 2353, 1705, 2437,  749
 5775, 1855,  274, 2031,  275
 5776, 2285, 2374, 2031,  272
 5777, 2374,  857, 2006, 2402
 5778, 1732, 1485, 1976,  923
 5779, 1663, 1659, 1736, 1977
 5780, 1482,  961, 1485, 1483
 5781, 1266, 1976,  885,  924
 5782, 2042, 2047, 2046, 2315
 5783, 2449,  196,  195, 1172
 5784, 1266,  885, 1976, 2359
 5785, 2448,  744,  196,  745
 5786, 1343,  404,  364,  365
 5787, 1262, 2359, 1623, 1631
 5788, 2297,  745,  197,  746
 5789, 1526, 1052, 1091, 1051
 5790, 1542, 2100, 1496, 2101
 5791, 2216, 2342, 1748,  932
 5792, 1543, 1503, 1551,  974
 5793, 1524, 1548, 1057, 1096
 5794, 2216, 2342,  971, 1446
 5795, 2435, 2361, 2436, 2363
 5796, 2411,  634,  674,  673
 5797, 1506, 1524, 1507, 1508
 5798, 2436, 2363, 2361, 1949
 5799, 2435, 2436, 2361, 1188
 5800, 1947, 1948, 2361, 1949
 5801, 1948, 1185, 2361, 1188
 5802, 2448,  197,  745,  196
 5803, 1473, 1257, 1714, 1580
 5804, 1843, 2311, 1635, 2312
 5805, 1618,  977,  938,  978
 5806, 1841, 1035, 1959, 1844
 5807, 1415, 1592, 1256,  466
 5808, 1841, 1714, 2314, 2313
 5809, 1761, 1216, 1842, 1818
 5810, 2432,  199,  198, 1175
 5811, 2459, 2199, 1972, 1971
 5812, 2211, 1971, 1183, 1910
 5813, 1863, 1387, 2234, 1385
 5814, 2046, 1940, 2048, 2038
 5815, 1775,  824,  159,  823
 5816, 2398, 2416,  357,  358
 5817, 2417,   77,   76,    6
 5818, 2398,  357, 2417, 2200
 5819, 2297,  198,  746,  197
 5820, 2166,  595,  596,  635
 5821, 2212, 2211, 2362, 2361
 5822, 2360, 2363,  356, 2032
 5823, 2046, 2371,  678, 2315
 5824, 2315, 2371, 2047, 2046
 5825, 1510, 1018, 1017,  978
 5826, 2385,  821, 2371,  156
 5827, 2371,  157, 2358,  677
 5828, 1676, 2057, 1870, 1021
 5829, 1300, 2351,  234,  237
 5830, 1707, 2433,  747,  786
 5831, 1942,  674, 2411,  635
 5832, 1941,  824,  785,  825
 5833, 2371,  156,  821,  157
 5834, 2371, 2038, 2047, 2046
 5835, 1890, 2300, 2172,  779
 5836, 2439, 1425, 2091, 1427
 5837, 2331, 1427, 2439,  741
 5838, 2439, 2465, 1169,  192
 5839, 2438,  200,  748,  199
 5840, 1705,  787,  748,  788
 5841, 1821,  518, 1982,  557
 5842, 2439,  741, 1427,  740
 5843, 1463, 1595,  682,  683
 5844, 1776, 1099, 1100, 1139
 5845, 1707,  786,  747,  787
 5846, 2353,  749,  201,   25
 5847, 1588, 2340, 1589,  227
 5848,  775, 1865, 1335, 1897
 5849, 2308,  672,  162,   22
 5850, 2308, 2474,  162,  672
 5851, 1467, 2152, 1894,  646
 5852, 1467, 2152,  646,  607
 5853, 1464, 1462, 1471, 1600
 5854, 1807, 2364, 1806,  653
 5855, 2327,  553,  593,  592
 5856, 2353,   26,  240,   25
 5857, 1938,  635, 2166,  596
 5858, 2364, 2249, 2188, 2452
 5859, 2135, 2111, 1774, 1771
 5860, 2437,  201,  200, 1177
 5861, 1821, 2148,  517,  556
 5862, 2188, 2248, 2249, 1805
 5863, 2167,  595, 1820,  556
 5864, 1296, 2308,  672, 2474
 5865, 1296,  673, 2411, 2474
 5866, 1935, 1973, 1937, 1778
 5867, 2249, 2452,  808, 2188
 5868, 2249,  769, 2188,  808
 5869, 1375, 2327, 1376,  593
 5870, 2456, 2457, 1943, 2182
 5871,  751, 1535, 1701,  790
 5872, 1320,  751,  711,  712
 5873, 1729, 1062,  211,  212
 5874, 2457, 2468,  795,  130
 5875, 2457, 1944,  796,  795
 5876, 1871,  947, 1829, 1792
 5877, 1871, 2025, 1792, 1384
 5878, 2025, 2192, 1025, 1026
 5879, 1529, 1320, 1531, 1540
 5880, 1745, 2192, 1026, 1731
 5881, 1745, 1792, 1796,  987
 5882, 1252, 1390, 1248, 2026
 5883, 2384, 1431, 2301, 2383
 5884, 2384, 1429, 1431,  641
 5885, 2384, 1438, 1432, 1429
 5886, 1886, 1881, 1889, 1534
 5887, 1535,  752,  791,  751
 5888, 1886,  713,  714,  753
 5889, 1438, 2384,  640, 1429
 5890, 1889, 1144, 1104, 1105
 5891, 2372, 2377, 1725,  668
 5892, 1790,  754,  714,  715
 5893, 2322,  166, 1143,  167
 5894, 2384, 2301, 2467, 2383
 5895, 2384, 1429,  641,  640
 5896, 1529, 1535, 1544, 1530
 5897, 1915, 1209,  660,  659
 5898, 1786, 2390,  754,  793
 5899, 1696, 2183,  799, 1703
 5900, 2284, 1943,  665,  704
 5901, 1696, 2197, 1697, 2235
 5902, 1698, 1703,  799,  134
 5903, 1608, 1609, 2284,  666
 5904, 1723, 1608, 1609, 2284
 5905, 1955,  698,  135,  136
 5906,  801, 1955, 2357, 1697
 5907, 2178, 2179, 1722, 2131
 5908, 1348, 1607, 1719, 1722
 5909, 1697, 2368,  761, 2235
 5910, 1698,  799,  135,  134
 5911, 2251, 2290, 2289, 1659
 5912, 1943,  664,  704,  703
 5913, 1723, 1944, 2284, 1785
 5914, 1711, 2349, 1042, 1003
 5915, 2182,  797,  757,  758
 5916, 1755, 1756, 1757, 1040
 5917, 2129,  663,  662,  623
 5918, 1711, 1977, 1003, 1002
 5919, 1977, 1945, 1003,  964
 5920, 2251, 2290, 2291, 2289
 5921,  925,  926, 1658, 1945
 5922, 1453, 2092, 2455, 1864
 5923, 2128,  701,  700,  661
 5924, 2219,  539, 2401, 2099
 5925, 1399, 1407, 1457, 1410
 5926, 1399, 1667, 1409, 1402
 5927, 2183,  759,  760,  799
 5928, 1401, 1649, 1441, 1746
 5929, 1213,  660,  621,  661
 5930, 1399, 1402, 2455, 1400
 5931, 1209,  660,  659,  620
 5932,  230, 1237, 2102, 2148
 5933, 1963, 1457, 1965, 1453
 5934, 1204, 1113, 1074, 1114
 5935, 1960,  723,  763,  762
 5936, 1915, 1955, 1961,  698
 5937, 1924, 1925,  802, 1961
 5938, 2062, 2069,  928, 1864
 5939, 2062, 1408, 2069, 1864
 5940, 1271, 1455, 1269, 1454
 5941, 1482,  960,  920,  921
 5942, 2123, 1312, 2415,  345
 5943, 1235, 1244,  433, 1310
 5944, 1846,  984, 1024, 1023
 5945, 2463,  725,  726,  765
 5946, 1228, 1926, 2114, 1224
 5947, 2357, 2368, 1206, 1960
 5948, 1411, 1717, 2270, 1989
 5949, 1311, 2081, 2122, 2163
 5950, 1769, 2114,  694,  655
 5951, 1225, 1077, 1116, 1076
 5952, 2415, 1310,  393,  394
 5953, 1242, 1232, 2214, 2397
 5954, 1877, 2364, 2113, 2249
 5955, 1224,  695, 2114,  656
 5956, 2115,  767,  766,  727
 5957, 2082, 2075,  340,  343
 5958, 2271, 2077, 2074, 2081
 5959, 2122, 2415, 1310,  393
 5960, 1763, 1767, 1807, 1876
 5961, 1769,  654,  694,  693
 5962, 2116, 2389, 2393,  805
 5963, 1805, 2248, 1877, 2247
 5964, 2113,  693, 2388,  692
 5965, 2075, 2123, 2414,  342
 5966,  555, 1304, 1820, 2148
 5967, 2248,  769,  729,  730
 5968, 1577, 2405, 2242, 2017
 5969, 2240,  328, 1417,  327
 5970, 2014, 2241,  332,  331
 5971, 1218, 1217, 1121, 1160
 5972, 1750,  730,  731,  770
 5973, 1683, 2466, 2257, 1162
 5974, 2453,  808,  144,  143
 5975, 1413, 1415, 1578,  427
 5976, 1752, 1902, 2141, 2177
 5977, 1601,  837, 1602,  876
 5978, 1418, 1602, 2014, 2241
 5979, 2335,  259, 1999,  260
 5980, 1810, 1899, 2187, 2258
 5981, 2187,  811,  810,  771
 5982, 2258,  772,  732,  733
 5983, 2140, 1084, 1905, 1123
 5984, 2298, 1999, 1997, 2292
 5985, 1900, 1901, 1899, 2137
 5986, 1680,  772,  733,  773
 5987, 2140, 2257, 1122, 1123
 5988, 2335, 2005,  263, 1779
 5989, 1340, 1990, 1997, 1999
 5990, 1467,  646, 1598,  645
 5991, 1681,  774,  734,  735
 5992, 1328, 1873, 1329, 1126
 5993, 1898,  813,  773,  774
 5994, 1990, 1997, 1999, 2292
 5995, 1814,  624, 1920, 2129
 5996, 1897, 1772, 2470,  813
 5997, 1555, 1967, 1969, 1968
 5998, 1933, 1827, 1808, 2154
 5999, 1330, 1333, 1328, 1165
 6000, 1897,  774,  775,  814
 6001, 1476, 1967,  508, 1966
 6002, 1865,  775,  776,  815
 6003, 1814, 1815, 1968, 1817
 6004, 1463,  683, 1464, 1595
 6005, 1474, 1476, 1967, 1560
 6006, 1820, 2148,  556,  555
 6007, 2174, 1089, 1088, 1049
 6008, 1598, 1599, 1464, 2429
 6009, 1967, 1969,  546,  547
 6010, 1245, 1246, 1248, 1731
 6011, 1725, 1606,  628, 1609
 6012, 1595,  151,  682,  683
 6013, 2372,  629, 1725, 1254
 6014, 1246, 2372, 1725, 1254
 6015, 2287, 1457, 1642,  415
 6016, 2173,  681,  152,  153
 6017, 1893, 1922, 1129, 1168
 6018, 2383,  680,  153,  154
 6019, 1466, 1467, 1465, 2175
 6020, 2300,  779,  780,  819
 6021, 2384,  680,  640,  641
 6022, 2287, 1642, 2392,  375
 6023, 2332, 1434, 1172, 1171
 6024, 2256,  601, 2255,  562
 6025, 2301,  820,  780,  781
 6026, 2287, 2392,  100,  375
 6027, 2087,  821, 2385,  820
 6028, 2087,  820,  781,  821
 6029, 2287,   99, 2333,  376
 6030, 2172, 1431, 1892,  642
 6031, 2046,  638,  639,  678
 6032, 1459, 2287, 1457, 1965
 6033, 2448, 2449,  196,  744
 6034, 1909,  214, 2234, 1180
 6035, 2047,  783,  822,  782
 6036, 2287, 1965, 2333,  291
 6037, 2048,  637,  638,  677
 6038, 2287,  376,  100,   99
 6039, 1437, 1438, 1546, 2255
 6040, 1518, 1523, 1527, 1524
 6041, 2249, 2376, 2248,  768
 6042, 2086, 1174, 1173, 1134
 6043, 2112, 2116,  767,  806
 6044, 2112, 2116, 2389, 1769
 6045, 2036, 2037, 2038,  784
 6046, 2115, 1773,  727,  766
 6047, 1974, 1546,  560,  561
 6048, 2055, 2057, 1059, 1020
 6049, 1770, 1877, 2376, 2260
 6050, 2433,  785,  746,  786
 6051, 2115, 2112,  767, 2376
 6052, 1704, 1935, 1777, 1707
 6053, 1707,  747,  748,  787
 6054, 1877, 1807, 1767, 2113
 6055, 1304, 1820,  594,  555
 6056, 2027, 2387, 2386, 2226
 6057, 2386, 2226,  853,  854
 6058, 1299, 2352,  237,  240
 6059, 2386, 2316,   47,  281
 6060, 1861, 2210, 1829, 1388
 6061, 1706,  787, 1705,  788
 6062, 2437, 2306, 1178, 1177
 6063, 2148, 1237,  227,  230
 6064, 1197, 2064, 1377, 1884
 6065, 1825,  710,  123,    8
 6066, 2027, 2386, 2029, 2226
 6067,  750, 1826, 1701, 1320
 6068, 1701,  789,  790,  125
 6069, 1825, 1200,  202,  123
 6070, 1884, 1701, 1825, 1700
 6071, 1700, 1701, 1702, 1884
 6072, 1826,  750, 1701,  789
 6073, 1825, 1701,  124,  789
 6074, 1701, 2458,  125,  790
 6075, 1701,  789,  125,  124
 6076, 1702, 2458,  708,  709
 6077, 1701, 1702,  709, 2458
 6078, 2458,  790,  791,  126
 6079,  790,  751,  750, 1701
 6080, 1530, 2426, 2458,  791
 6081, 2372, 1528, 2090,  669
 6082, 1206, 1915, 1697, 2357
 6083, 1208, 1635, 1216, 1634
 6084, 1530,  753,  792,  752
 6085, 2424, 2377, 2090,  707
 6086, 2424, 2426, 2390,  792
 6087, 1203, 1211, 1215, 1213
 6088, 1210, 1074, 1212, 1204
 6089, 2424,  792,  793,  128
 6090, 2390,  792,  753,  793
 6091, 1782, 1786, 1790, 1317
 6092, 1203, 1634, 1214, 1213
 6093, 2425,  793,  794,  129
 6094, 1208, 1216, 1844, 1212
 6095, 1210, 1073, 1212, 1074
 6096, 2301, 2467,  819,  820
 6097, 1786,  794,  793,  754
 6098, 2284,  705, 2468,  704
 6099, 2087, 2384, 2301, 2467
 6100, 2468,  794,  795,  130
 6101, 1785,  794,  755,  795
 6102, 1432, 2087, 2384, 2301
 6103, 1944,  756,  757,  796
 6104, 2087, 1433, 2084,  781
 6105, 1944,  795,  756,  796
 6106, 2384, 2383,  680, 1431
 6107, 2457,  795,  796,  131
 6108, 2087, 2467, 2301,  820
 6109, 2456,  796,  797,  132
 6110, 2440, 2441, 1720,  718
 6111, 2420, 2128,  702,  701
 6112, 2182,  797,  796,  757
 6113, 2315, 2384, 1438, 1432
 6114, 2042, 1437, 1438, 2043
 6115, 2420,  797,  798,  133
 6116, 2132,  758,  759,  798
 6117, 2087,  820, 2385, 2467
 6118, 2384, 2383, 2467,  680
 6119, 1697,  761,  800,  760
 6120, 2183,  799,  798,  759
 6121, 1495,  524, 2072, 2110
 6122, 1495, 1497,  525,  524
 6123, 2183, 2235,  760,  759
 6124, 1699, 1213, 2165,  661
 6125, 1703,  133,  134,  700
 6126, 1912, 1226, 2278, 1925
 6127, 1495, 1538,  564,  525
 6128, 1697,  761,  762,  801
 6129, 2109, 2110,  484,  485
 6130, 1697,  800, 1698,  799
 6131, 1955,  800,  801,  136
 6132, 2357, 1206, 2368, 1697
 6133, 1492, 1501, 1500, 2191
 6134, 1309, 1857, 1391, 2226
 6135, 1961,  801,  802,  137
 6136, 1648, 2030, 2027, 1640
 6137, 2357,  801,  762,  802
 6138, 1392, 1301, 1391, 1393
 6139, 1924, 2278,  697,  696
 6140, 1925,  764,  803,  763
 6141, 1924,  802,  803,  138
 6142, 2030, 2276, 1647, 1380
 6143, 1229, 1227, 2170, 1230
 6144, 1926,  803,  804,  139
 6145, 2030, 1380, 1647, 1306
 6146, 1228,  766,  805,  765
 6147, 2030,  280, 2029,  283
 6148, 1301, 1307, 1647, 1303
 6149,  764, 1926,  803,  804
 6150, 2023, 2022,  914,  913
 6151, 1951, 1956, 1208, 1207
 6152, 2116,  766,  767,  806
 6153, 2074, 2423,  338, 2078
 6154, 2164, 2271, 2019, 2162
 6155, 2389,  805,  806,  141
 6156, 1229, 1223, 1231,  617
 6157, 2116,  805,  766,  806
 6158, 2011, 2014, 1601, 2078
 6159, 2388, 2112,  806, 2389
 6160, 2388,  806,  807,  142
 6161, 2023, 1421, 2020, 1478
 6162, 1424, 2021, 2020, 1477
 6163, 2112,  806,  767,  807
 6164, 1281, 1288, 1286, 1291
 6165, 2452,  807,  808,  143
 6166, 2453, 2452,  143,  691
 6167, 2188,  769,  770,  809
 6168, 1288, 2339, 1292,  360
 6169, 2188,  808,  769,  809
 6170, 1281, 2227, 1293, 2143
 6171, 2249,  808,  807,  768
 6172, 2453,  808,  809,  144
 6173, 1810, 1813, 2187, 2186
 6174, 1588,  224, 1286, 2233
 6175, 1288, 1286, 2339, 2233
 6176, 2454,  809,  810,  145
 6177, 1681, 1897,  774, 1335
 6178, 2295, 1681, 1333, 2259
 6179, 2454, 2461, 1813,  689
 6180, 1899, 2137, 1901, 2186
 6181, 2461,  810,  811,  146
 6182, 1895, 1859, 2168,  648
 6183, 1899, 2283, 2258, 1680
 6184, 1678, 2259, 1681, 1680
 6185, 2462,  811,  812,  147
 6186, 1681, 1680,  773, 1898
 6187, 1684, 1332, 1328, 1874
 6188, 2462, 2470, 2169,  687
 6189, 1681, 1680,  734,  773
 6190, 2470,  813,  148,  812
 6191, 1804, 1807, 1787, 1788
 6192, 1894, 1772,  685,  686
 6193, 1898,  813,  812,  773
 6194, 2248, 2376,  729,  768
 6195, 1750, 2475,  731,  730
 6196, 1772,  813,  814,  149
 6197, 1897,  813,  774,  814
 6198, 2442, 1159, 2247, 1217
 6199, 2427,  149,  814,  150
 6200, 1263, 1631,  305, 2195
 6201, 1262, 2359, 1266, 1976
 6202, 1261, 2104,  887,  886
 6203, 2429,  815,  816,  151
 6204, 2429,  151, 1595,  683
 6205, 1962,  295, 1461, 1965
 6206, 1624, 1664, 1262, 2124
 6207, 2234, 1180, 1970, 1387
 6208, 1595,  816,  817,  152
 6209, 1262, 2124, 1664, 1665
 6210, 2173,  152,  681,  682
 6211, 2173,  818,  153,  817
 6212, 1270, 1454, 2051, 1461
 6213, 1261,  887, 1269, 1658
 6214,  817, 2173,  682,  152
 6215, 2301, 1427, 1433,  780
 6216, 2300,  818,  779,  819
 6217, 2383,  818,  819,  154
 6218, 2088, 1426, 1439, 1709
 6219,  301, 2124,  304, 1631
 6220, 1988, 1385, 2327,  553
 6221, 2051, 1263,  298,  299
 6222, 2467,  819,  820,  155
 6223, 2385, 2315,  679,  678
 6224, 2301,  820,  819,  780
 6225, 1261, 1266,  886, 1658
 6226, 1261, 1658,  886,  887
 6227, 2043, 2046, 2048,  638
 6228, 2385,  821,  156,  820
 6229, 2046,  678, 2371,  677
 6230, 2194,   54,  848,  847
 6231, 1761, 1818, 2151, 1216
 6232, 2371,  821,  822,  157
 6233, 1842, 1034, 1845, 1033
 6234, 1842, 1845, 1819, 1033
 6235, 2339, 1292,  360, 2282
 6236, 2047,  822,  821,  782
 6237, 2358,  822,  823,  158
 6238, 2093, 2380, 1293, 2142
 6239, 2038,  783,  823,  822
 6240, 1761, 1819, 1563, 1840
 6241, 2037,  785,  824,  784
 6242, 2311,  544, 2151,  543
 6243, 1939, 1775, 1941, 1942
 6244, 2430, 1942, 1775,  675
 6245, 1707, 2433,  786, 2473
 6246, 2473, 1707, 1936, 1704
 6247, 2430, 2472, 1942,  674
 6248, 2430,  824,  825,  160
 6249, 1298,  788, 2274, 1706
 6250, 2274, 2275,   24,  788
 6251, 1706, 2411, 2472, 2474
 6252, 2473,  786,  787,  826
 6253, 1706, 2473, 2472, 2411
 6254, 1704, 1297, 2166, 1296
 6255, 1706,  827,  826,  787
 6256, 1706,  827,  787,  788
 6257, 1704, 1706, 1296, 2411
 6258, 2274, 1706, 2474, 1296
 6259, 1706, 2472, 2473,  826
 6260, 2474,  161,  162,  672
 6261, 2274,  827,  788,   23
 6262, 1298, 1299,  238,  241
 6263, 2274, 1296, 2474, 2308
 6264, 2273, 1296, 2308,  672
 6265, 1402, 1441,  930, 1746
 6266, 1381, 1864,  889, 2092
 6267, 2436,  208, 1188,   74
 6268, 2435, 2436,   74,  359
 6269, 2436,  359, 2363,   73
 6270, 2434,   72,   71,  830
 6271, 2355,  174, 1151,  175
 6272, 1409, 1822, 1410, 2063
 6273, 2436,  828,  208,    5
 6274, 1452, 1410, 1408, 1457
 6275, 1253,  512,  551,  511
 6276, 1744, 2246, 1831, 1253
 6277, 1455, 1864, 2062, 2222
 6278, 1831,  472,  512,  511
 6279, 1829,  946,  945,  906
 6280, 1452, 1461, 1270, 1460
 6281, 1453, 1864, 1454, 2092
 6282, 1829,  907,  947,  946
 6283, 2120,  509,  549,  548
 6284, 1399, 1457, 1453, 1408
 6285,  868,  869,  829, 1830
 6286, 1401, 1746, 1648, 1649
 6287, 2023, 2271,  913, 2019
 6288, 1714, 2150, 2311, 1592
 6289, 1947, 1948,  207, 1185
 6290, 1604,  390, 1423, 2412
 6291, 2261,  173, 2471,  721
 6292, 1409, 2063, 1823, 1822
 6293, 1402,  968, 1828, 2061
 6294, 1746, 1400, 2068,  891
 6295, 1563, 1710,  994,  993
 6296, 1601, 2407, 2421,  335
 6297, 2147, 2324, 2323, 2391
 6298, 1215, 2235, 2196, 2368
 6299, 2010,  870,  910,  909
 6300, 2271, 2019, 2162,  912
 6301, 1945, 2222, 1658, 1659
 6302, 2405, 2017, 1361, 2409
 6303, 2418,  834,   68,   67
 6304, 1969, 1968,  546,  585
 6305, 1261, 2104, 1269,  887
 6306, 1475,  915, 1603,  916
 6307, 2050, 1269, 2104,  887
 6308, 1742,  951,  952,  991
 6309, 1421, 2023, 1613, 1479
 6310, 1592,  465,  505,  504
 6311, 2341,  872,  873,  912
 6312, 1603,  876,  877,  916
 6313, 2407,   64, 2318,  837
 6314, 1473, 2313, 1561, 1710
 6315, 2074, 2079, 1605, 2076
 6316, 2413,  388,   88,   87
 6317, 1480,  506,  467,  507
 6318, 1575,  878,  879,  918
 6319, 1601,  876,  875,  836
 6320, 2050, 1270, 2051, 2104
 6321, 2019,  912,  913,  952
 6322, 2406,   60,   61,  320
 6323, 1659, 1661, 2147, 2060
 6324, 1602,  876,  837,  877
 6325, 1455, 1659, 2060, 1661
 6326, 1267,  503,  502,  463
 6327, 1580,  956,  955,  916
 6328, 2318, 2319,   63,  329
 6329, 2403,  386, 2446,   89
 6330, 1476, 1477,  469,  468
 6331, 1613, 1475,  915, 1603
 6332, 2409,   62,   61,  840
 6333, 1476,  507, 1480,  468
 6334, 1655,  881, 1365,  842
 6335, 1657,  314,   59,  317
 6336, 2238,  422, 2264,  461
 6337, 1356, 2399, 1995,  320
 6338, 1627, 1662,  381,  420
 6339, 1211, 1929, 1210, 1927
 6340, 2311,  543, 2312,  504
 6341, 1967, 1969,  547, 1354
 6342, 2347, 2394, 2396,  383
 6343, 2400,   58,  311,   57
 6344, 2399,   59,   60,  317
 6345, 2023, 1564,  953, 1479
 6346, 1478, 2024, 1557, 1476
 6347, 1637,  384,  424,  423
 6348, 1575, 2405, 1359,  879
 6349, 1573, 1575,  918,  917
 6350, 1577, 1575, 1582, 2243
 6351, 2395,   57,   56,  845
 6352, 2346, 2395, 2400,  311
 6353, 1655, 1365, 2399,  842
 6354, 2395,  308, 2321,   56
 6355, 2321,   56,  305,   55
 6356, 1360, 2017, 1995, 1361
 6357, 2014, 2407,  332, 2318
 6358, 1349,  513,  553,  552
 6359, 1359,  919, 2000,  918
 6360, 2195,   55,  847,  846
 6361, 2195,   55,  305,  302
 6362, 2395,   57,  845,  844
 6363, 1631,  308,  304,  305
 6364, 1628,  884,  883,  844
 6365, 1264,  847,  886,  846
 6366, 2194,   54,  302,  299
 6367, 2194,   54,  299,   53
 6368, 1976, 2359,  885,  884
 6369, 1988,  592,  552,  553
 6370, 1360, 1359, 2405, 1361
 6371, 2320,  379, 2317,   96
 6372, 1868, 1869, 1987, 1986
 6373, 2234,  214, 2065,  215
 6374, 2195,   55,   54,  847
 6375, 1263,  299,  302,  298
 6376, 2195,  302,   54,   55
 6377, 1382,   53,  296,   52
 6378, 2447, 2327,  593, 1376
 6379, 1319, 1321, 1320, 1980
 6380, 2194, 2195,  302,   54
 6381, 1978, 2052, 1728, 2105
 6382, 1375,  631,  592,  632
 6383, 1986, 1728, 1846, 1024
 6384, 1381,  293,   51,   52
 6385, 1381,  293,   52,  296
 6386, 2194, 2104, 1382, 2051
 6387, 2317, 1665, 1460,  378
 6388, 1381,  293, 2288,   51
 6389, 1728, 1024, 1063, 1023
 6390, 1381,  850,  849,   52
 6391, 1735,   50,  852,  851
 6392, 1728, 1023, 1846, 1024
 6393, 2288,  851,  850,   51
 6394, 1746,  931,  891,  892
 6395, 1728, 1846, 1023, 1729
 6396, 2052, 1729, 2105, 1196
 6397, 2092,  889,  850,  890
 6398, 2028,  289,  286,  290
 6399, 1403,  210, 2105, 1101
 6400, 1866, 2171, 1728, 1986
 6401, 1261, 2104, 1270, 1269
 6402, 1624, 2066, 2124,  304
 6403, 2226,  853,  854,  893
 6404, 1855,  275, 2379,  278
 6405, 1265, 1658, 1663, 1266
 6406, 1647, 1641,  411,  372
 6407, 1497,  525,  485,  486
 6408, 1497,  485,  525,  524
 6409, 1380,  372,  104,  103
 6410, 1499, 1052, 1013, 1053
 6411, 2245, 1711, 1977, 1945
 6412, 1630, 1736, 1663, 1693
 6413, 2007,  272,  271,  268
 6414, 1627,  460, 2238, 1486
 6415, 2285,   43,  858,   44
 6416, 1551, 1013, 1012,  973
 6417, 1380, 1307, 1306, 1331
 6418, 2110,  485,  524,  484
 6419, 1472, 2239, 1536, 1921
 6420, 1624, 1627, 1630, 1662
 6421, 1569, 1568,  409,  448
 6422, 1551,  974, 1503, 1013
 6423, 2033, 2334,  261, 2369
 6424, 1668,  522,  482,  483
 6425, 1668,  482,  522,  521
 6426, 1475, 1580,  916, 1582
 6427, 1434, 1172, 1171, 1132
 6428, 1517,  482,  521,  481
 6429, 1517,  521,  520,  481
 6430, 1617, 1618, 2329, 2382
 6431, 2318,  838,   64,   63
 6432, 2373,   41,  260,   40
 6433, 1572,  270, 2009,  271
 6434, 2339,  399,   14,  360
 6435, 2055, 1527, 1058, 1059
 6436, 1990,  257, 1999,  256
 6437, 2339,   15,  218,   14
 6438, 1695,  441,  481,  480
 6439, 1288, 2339, 1286, 1291
 6440, 2373,  861,  860,   41
 6441, 2034, 1896, 2335,  262
 6442, 2119,  941,  981,  980
 6443, 2298, 2373,  861, 1998
 6444, 1498, 1654, 2254, 2229
 6445, 1636,  941, 1615,  940
 6446, 1573, 1580,  917,  956
 6447, 1991,  903,  943,  942
 6448, 2338,  865,  864,   37
 6449, 1574, 1573, 1359, 2000
 6450, 1573,  917, 1580, 1582
 6451, 2293,  863,   38,  864
 6452, 2330, 1289,  216,  217
 6453, 1580, 1573, 1582, 1414
 6454, 1298, 2273, 1296, 2274
 6455, 2282, 1291, 2328,  218
 6456, 1583,  942, 1991,  943
 6457, 2005, 2007,  268,  269
 6458, 1996, 1278, 2119, 1583
 6459, 1781,  861, 2373, 1998
 6460, 1618,  938,  939,  978
 6461, 2337,  248,  245,   36
 6462, 2055, 1019, 1059, 1058
 6463, 2337,  865,   36,  866
 6464, 2335, 1779,  263, 2373
 6465, 2279, 2337,  866, 2096
 6466, 2261,  720,  172,  721
 6467, 1344, 2208, 2335, 1781
 6468, 1895,  648, 2168, 2169
 6469, 1280,  403,  363,  364
 6470, 2093,  866,  905,  865
 6471, 2152,  647, 1894,  646
 6472, 1895, 2169,  687,  648
 6473, 2436,  828, 1948,  208
 6474, 1685, 2168, 1895, 1859
 6475, 1928, 1927, 2196, 1929
 6476, 2447,  120,  554,    7
 6477, 2016,   70,  347,   69
 6478, 2459, 2199,  437, 1972
 6479, 1895, 2470,  687, 2169
 6480, 1452, 1459, 1457, 1965
 6481, 2287, 1457, 1965, 1963
 6482, 1407, 1410,  454, 1458
 6483,  867, 1947, 1948,  207
 6484, 2343,  830,  869,  829
 6485, 1584, 1282, 1585, 1587
 6486, 1239, 1584, 1586, 1585
 6487, 2056, 1515, 1523, 1975
 6488, 1862,  869, 2343,  870
 6489, 1315, 1326,  168,  716
 6490, 2410,   68, 2418,  833
 6491, 1583,  982, 1870,  981
 6492, 2080, 2079,  431,  430
 6493, 2161, 2203, 2224, 2218
 6494, 2228, 1497,  486,  525
 6495, 1502, 1052, 1526, 1501
 6496, 1353,  588,  587,  548
 6497, 1742,  951,  991,  990
 6498, 1717, 2270, 1989, 2410
 6499, 1887, 1193, 1192,  214
 6500, 2121,  910,  871,  911
 6501, 2281, 2070, 1054, 2073
 6502, 1354,  547,  548,  587
 6503, 1797,  949,  948,  909
 6504, 2074,  338, 2423,  341
 6505, 1354,  586,  547,  587
 6506, 2109, 1622,  445, 2108
 6507, 2471,  722,  173,  174
 6508, 2123, 2270,  346,  343
 6509, 1601, 2407,  836, 2421
 6510, 2404,  873,  834,  874
 6511, 1969,  586,  585,  546
 6512, 1601,  835,  836,  875
 6513, 2023,  952, 2019,  913
 6514, 2192, 1025, 1026, 1065
 6515, 2267,  873,  872,  833
 6516, 1831, 1379,  512,  473
 6517, 1653, 2350,  937,  898
 6518, 1796,  949,  988,  948
 6519, 2064, 1195, 1198, 1194
 6520, 1479,  953,  914,  954
 6521, 2261, 2471, 2235,  721
 6522, 2271,  873,  874,  913
 6523, 1395, 2161, 2218, 1393
 6524, 1719, 1723, 1607, 1610
 6525, 1702,  710,  670,  671
 6526, 2311,  544,  543,  504
 6527, 1966,  508,  509,  548
 6528, 1722, 1944, 2182, 1943
 6529, 1613,  914,  875,  915
 6530, 2182, 1720, 1944, 1722
 6531, 1944, 2182,  796,  757
 6532, 1259, 1576, 1256,  426
 6533, 1995, 2406,  323,  320
 6534, 1817,  544,  584,  583
 6535, 1259,  426, 1256,  465
 6536,  542, 1633, 1632,  541
 6537, 1361,  880,  879,  840
 6538, 1234, 1241, 1379,  474
 6539, 1575, 2405,  878, 2243
 6540, 2284, 2468, 2457,  704
 6541, 1626,  310, 2326, 2067
 6542, 1233, 2296,  395, 1244
 6543, 1259, 2198,  464,  465
 6544, 2284, 1944, 2468, 1785
 6545, 1944, 1785,  756,  795
 6546, 1944, 1785,  795, 2468
 6547, 2311, 2312,  543, 1635
 6548, 2457,  795,  131,  130
 6549, 2193, 1943,  664,  665
 6550, 2236, 1483, 1000, 2375
 6551, 1655,  882, 1363,  881
 6552, 2198,  464,  504,  503
 6553, 1233, 1242, 1234, 1241
 6554, 2193, 1943, 2127,  664
 6555, 2205, 2170, 1227, 1230
 6556, 1657, 2400,   58,  314
 6557, 2219, 1373, 1632,  540
 6558, 1490,  500,  461,  501
 6559, 2456, 2457, 2182,  796
 6560, 1656,  883,  843,  844
 6561, 2395, 2321, 2359,  845
 6562, 1656,  883,  882,  843
 6563, 2284, 2457, 1944, 1943
 6564, 1722, 1943, 2182, 2127
 6565, 1364,  880,  881,  920
 6566, 2194, 1263, 2104, 2051
 6567, 2388,  806,  142,  141
 6568, 2264,  422,  423,  462
 6569, 1629,  883,  884,  923
 6570, 1228, 2393, 2116, 2114
 6571,  804,  805, 1228, 2393
 6572, 1693,  458,  459,  498
 6573, 1662,  459,  458,  419
 6574, 1662,  381,  420,  380
 6575, 2112, 2389, 2116,  806
 6576, 2359,  845,  885,  884
 6577,  474,  435, 1234, 1241
 6578, 1266,  885,  886,  925
 6579, 2171, 1532, 1539, 1540
 6580, 1266,  924,  885,  925
 6581, 1222, 2116, 1769, 2114
 6582, 1228, 2116,  766, 1773
 6583, 1269,  927, 1864, 2222
 6584, 2116, 2393, 2389, 2114
 6585, 1769, 2114, 2389,  694
 6586, 2104,  887,  886,  847
 6587, 2194, 2104, 1263, 1264
 6588, 2036, 2038,  783,  784
 6589, 1962,  292,  293,  296
 6590, 2013, 2089, 2317,  297
 6591, 1807, 2113,  653,  654
 6592, 2455,  889, 1864, 2092
 6593, 1458, 2225, 2063,  455
 6594, 2455,  929, 2069,  928
 6595, 2027, 2028,  286,  287
 6596, 1746, 2068, 1747,  891
 6597, 2386, 2226, 2387,  853
 6598, 1747,  891,  852,  892
 6599, 2068,  852, 1747,  891
 6600, 2216,  933, 1394,  972
 6601, 1735, 1747,  852, 2387
 6602, 2226,  892,  853,  893
 6603, 1855, 2379, 2374, 2402
 6604, 1964, 2068, 2092, 2288
 6605, 2113, 2249, 2388, 2112
 6606, 1399, 2455, 1453, 1400
 6607, 1394,  933,  934,  973
 6608, 1735,  287,   50,  290
 6609, 1858,  894,  855,  895
 6610, 1453, 1963, 1405, 1964
 6611, 1397, 1568, 1571, 1570
 6612, 1735, 2068, 2288,  851
 6613, 1440, 1445, 1644, 1450
 6614, 1563,  994, 1710, 2313
 6615, 1441,  930,  970,  969
 6616, 1478, 1421, 1479, 2023
 6617, 1565,  935,  896,  936
 6618, 1380, 1331,  104,  371
 6619, 1555, 1556, 1564, 1563
 6620, 1305, 1854, 1855, 1504
 6621, 1475, 1710,  955, 2313
 6622, 1541, 2109, 1850, 1651
 6623, 2310, 2005,  266,  269
 6624, 1561, 1560, 1562, 2150
 6625, 2218,  449,  489,  488
 6626, 1597,  738,  739,  778
 6627, 1395, 2100, 1394, 1396
 6628, 1870, 1021, 2057, 1020
 6629, 1653,  897, 1780,  898
 6630, 1848, 1853, 1851,  407
 6631, 1446, 1010,  970,  971
 6632, 1522, 1975, 1517,  520
 6633, 1780,  858,  859,  898
 6634, 1781, 1998,  900,  861
 6635, 2202, 1011, 2215, 2201
 6636, 2055, 1058, 1527, 1524
 6637, 2055, 1019, 2117, 1020
 6638, 2329,  899,  939,  938
 6639, 2005,  263,  266,  262
 6640, 1522, 1983,  558, 1520
 6641, 1997,  902,  862,  863
 6642, 2070, 1499, 1503, 1014
 6643, 2056, 1975, 2149, 1695
 6644, 1273, 1992, 2380, 2294
 6645, 2117, 2119, 1583,  981
 6646, 2298, 1999, 2292,  257
 6647, 2382,  901,  940,  900
 6648, 1654,  936,  937,  976
 6649, 1238, 2056, 1585, 2057
 6650, 1512, 1514, 1510, 1616
 6651, 2240, 1576, 2413, 1578
 6652, 1282, 1293, 2095, 1991
 6653, 1615,  979,  940,  980
 6654, 2040, 1175, 2297, 1174
 6655, 2093,  866, 2337, 2096
 6656, 2053,  518,  479,  519
 6657, 2413,   88, 2403,  324
 6658, 2240, 2413, 1417, 1578
 6659, 1510, 1017, 1511,  978
 6660, 2118, 2117, 2119, 1583
 6661, 2380,  904,  903,  864
 6662, 2380, 1991,  903,  904
 6663, 1507, 1057, 1056, 1017
 6664, 2240,  327, 2413,  324
 6665, 2142,  248,  251,  247
 6666, 1636, 2382,  901,  940
 6667, 1590,  226, 1588, 1237
 6668, 1924, 1961,  802,  137
 6669, 2096,  866,   33,  905
 6670, 1274,  252, 1342, 2286
 6671, 1636,  940,  901,  941
 6672, 1924,  802,  138,  137
 6673, 2340, 1589,  477, 1287
 6674, 2093,  904,  865,  905
 6675, 1591,  220,  223,  219
 6676, 1907, 1153, 2356, 1152
 6677, 1584, 1283, 1290, 1282
 6678, 1924, 1914, 1925, 1961
 6679, 1925, 1914, 1912, 2357
 6680, 1914, 2357, 1925, 1961
 6681, 1925, 1926,  803,  764
 6682, 1700, 1201, 1200, 1197
 6683, 2234,  554,  515,    7
 6684, 1848, 2008, 1850, 1566
 6685, 1235, 1318, 1311, 1314
 6686, 2310,  858, 1780, 2006
 6687, 2065,  215, 1192, 1191
 6688, 1349,  514, 1387, 1385
 6689, 1398,  896, 1565,  935
 6690, 1233, 1234, 1235,  434
 6691, 1871,  946,  986,  985
 6692, 2285, 2007,  269,  272
 6693, 2310, 2285, 2006, 2007
 6694, 1409, 2060, 1408, 2062
 6695, 2016,   70,   69,  832
 6696, 1794,  948,  947,  908
 6697, 2285,  272, 2031, 2007
 6698, 1567, 2402, 1854, 2031
 6699, 2010,  870,  871,  910
 6700, 1862,  908, 1794, 1830
 6701, 1648, 1746, 1747, 1748
 6702, 2361, 1185, 1186, 1189
 6703, 1747, 2226,  853, 2387
 6704, 1793, 2010, 1232, 1318
 6705, 2027, 2028,  287, 2387
 6706, 1792,  947,  948,  987
 6707, 1440, 1445, 1444, 1644
 6708, 1740,  510,  550,  549
 6709, 1979, 1527, 1973, 1097
 6710, 2020, 2019, 2164, 2271
 6711, 1935, 2433, 2304, 2305
 6712, 2022,  874,  875,  914
 6713, 1936, 1942, 1941, 2473
 6714, 1916,  625,  624,  585
 6715, 2074, 2076,  336,  339
 6716, 2341,  911,  872,  912
 6717, 1603,  876,  916,  915
 6718, 1731, 1066, 1065, 1026
 6719, 1477, 1422, 1424,  429
 6720, 1476,  468, 1422, 1477
 6721, 1475,  954, 1479,  915
 6722, 1968,  585,  584,  545
 6723, 1855, 1856,  278, 2379
 6724, 1856, 1858, 1857, 2316
 6725, 1479,  914,  915,  954
 6726, 1414, 1416, 1579, 1582
 6727, 1398, 1392, 1858,  895
 6728, 1250, 1606, 1260, 1255
 6729, 1858, 2402,  895,  856
 6730, 1392, 1858,  894, 1857
 6731, 1475,  915,  916,  955
 6732, 2018,  953,  992,  952
 6733, 1854, 1398, 1392, 1858
 6734, 1968, 1817,  545,  584
 6735, 1445, 1444, 1644,  452
 6736, 2312,  543,  542,  503
 6737, 1814,  624,  584,  585
 6738, 1582,  916,  877,  917
 6739, 1849, 1653, 1567, 2006
 6740, 1490,  461,  462,  501
 6741, 1378, 1951, 1958, 1370
 6742, 1575,  917,  878,  918
 6743, 2310, 1780, 2007, 2006
 6744, 1211, 1216, 1761, 1214
 6745, 1359,  879,  880,  919
 6746, 1849, 2007, 1780, 2006
 6747, 1367,  462, 2264,  423
 6748, 1567, 2009, 2007,  271
 6749, 2003, 1363,  920, 1364
 6750, 1573,  917,  957,  956
 6751, 2007, 2009,  268,  271
 6752, 2000,  958,  957,  918
 6753, 1953,  998,  999, 1038
 6754, 2031, 2007,  272,  271
 6755, 1258, 2325, 2015, 1576
 6756, 1268,  501,  462,  502
 6757, 1373,  540,  501,  541
 6758, 1359,  918,  879,  919
 6759, 2126, 2179, 2127, 1920
 6760, 2126, 2129, 1919, 1920
 6761, 1486,  460,  500,  499
 6762, 2099,  539,  538,  499
 6763, 1484,  922,  921,  882
 6764, 1363,  920,  881,  921
 6765, 1723, 1607, 1610, 1612
 6766, 1919, 1930, 1918, 1931
 6767, 1482,  959, 2003,  920
 6768, 1482,  960,  959,  920
 6769, 2002, 1358, 1363, 1364
 6770, 1724, 1610, 1723, 1719
 6771, 1504, 1331, 1306, 1307
 6772, 2238, 1486,  461, 1490
 6773,  499,  538, 1690,  498
 6774, 1858, 1857, 2316,  855
 6775, 1657,  843,   59,   58
 6776, 1485,  923,  962,  922
 6777, 1660,  418, 1664,  419
 6778, 1392, 1857,  894, 1391
 6779, 1639, 1648, 1640, 2030
 6780, 1485,  962,  961,  922
 6781, 1660,  457,  418,  458
 6782, 1857,  894, 1391,  893
 6783, 2194, 2195,  847, 1264
 6784, 1857, 2226,  893, 1391
 6785, 1976,  924,  923,  884
 6786, 2066,  307, 1624, 2067
 6787, 1273, 1274, 1992,  253
 6788, 1732,  924,  964,  963
 6789, 2143, 2142,  247, 2227
 6790, 2143,  247, 2142,  250
 6791, 2338,   36,   37,  248
 6792, 2338,   37,   36,  865
 6793, 1375,  631,  671,  670
 6794, 2380,  903, 1991, 2294
 6795, 1874, 1872, 2158, 1873
 6796, 1273, 1340, 1997, 1636
 6797, 1822,  454, 2063,  493
 6798, 1992, 2338, 2293,  251
 6799, 1984, 1384, 2065, 1385
 6800, 1458, 1456,  455,  416
 6801, 1449, 1828, 1409, 1667
 6802, 1992, 2142,  251,  250
 6803, 1990, 2292,  257,  254
 6804, 2139, 1083, 1043, 1044
 6805, 1824,  492, 1822,  493
 6806, 1400,  930,  929,  890
 6807, 1638, 1641, 1640, 1645
 6808, 1857,  854,  855,  894
 6809, 1828, 1007,  968, 1008
 6810, 2069,  968,  967,  928
 6811, 1990, 2293, 1992, 2294
 6812, 1748,  892,  893,  932
 6813, 2342,  971,  970,  931
 6814, 1992, 2142, 2380, 2338
 6815, 1748,  931,  892,  932
 6816, 1273, 2294, 1990, 1992
 6817, 1391,  893,  933,  932
 6818, 1455, 2062, 1864, 1408
 6819, 1391,  893,  894,  933
 6820, 1450,  452, 1644,  453
 6821, 1443, 1009, 1008,  969
 6822, 1319, 1980, 1404, 1321
 6823, 1392,  933,  894,  934
 6824,  925, 1977,  964, 1945
 6825, 1369,  370,  106,  105
 6826, 1397, 1395, 1568, 1569
 6827, 1496, 2100, 1551, 2191
 6828, 2201, 1011, 1010,  971
 6829, 1569, 1307,  409, 1570
 6830, 1663, 1736, 1659, 1666
 6831, 1653,  937, 1654,  936
 6832, 2155, 2215, 2158, 2156
 6833, 1265, 1663, 1659, 1666
 6834, 1543,  974,  935,  975
 6835, 1381, 1964, 2288,  293
 6836, 1381, 2288, 2092,  850
 6837, 2218, 2160, 1569,  449
 6838, 1650,  446,  486,  485
 6839, 1453, 2455, 2092, 1400
 6840, 1270, 1461, 2089, 1460
 6841, 1583, 2119, 1996,  942
 6842, 1653,  936,  897,  937
 6843, 2288, 2092,  850,  851
 6844, 1514, 1615,  980,  979
 6845, 1737, 1431,  602,  603
 6846, 2108,  444,  484,  483
 6847, 2350,  937,  898,  938
 6848, 2254,  937,  938,  977
 6849, 1328, 1165, 1333, 1126
 6850, 1508, 1018, 1019, 1058
 6851, 1667, 1402, 1443, 1828
 6852, 2068, 2092, 2288,  851
 6853, 2360, 2435, 2363, 2361
 6854, 1949, 2361, 2212, 2363
 6855, 1982,  557,  518,  558
 6856, 1277,  401,  402,  441
 6857, 2435,   74,  358,  359
 6858, 2435, 1188,   75,   74
 6859, 2435, 2363, 2436,  359
 6860, 1996,  942, 2119,  941
 6861, 1982,  518,  519,  558
 6862, 1449, 1448, 1450, 1822
 6863, 1948, 1188,  207, 1185
 6864, 2199, 2211, 1971, 2362
 6865, 1513, 2118, 2056, 2117
 6866, 1514, 1019, 1508, 1018
 6867, 2212, 2363, 2032,  829
 6868, 1587,  439,  479,  478
 6869, 1949, 2363,  829,  828
 6870, 1583,  942,  943,  982
 6871, 1514, 1019, 1018,  979
 6872, 2416, 2360, 2435,  358
 6873, 2095,  904,  905,  944
 6874, 1584, 1290, 1287, 1588
 6875, 1991,  903,  904,  943
 6876, 1232, 1830, 2212, 2343
 6877, 1279, 2149,  441, 1695
 6878, 2054, 1589, 1587,  478
 6879, 2095,  943,  904,  944
 6880, 1586,  983,  982,  943
 6881, 2049, 2043,  638,  599
 6882, 2436, 1948,  828, 1949
 6883, 1947,  207,  206, 1185
 6884, 1590,  226,  222,  223
 6885, 1555, 1563, 1564, 1710
 6886, 1949, 1830,  907,  868
 6887, 1240, 2102, 1820, 1295
 6888, 2171, 1102, 1728, 1063
 6889,  232, 1295, 1672,  235
 6890, 1879,  945,  985,  984
 6891, 1935, 1778, 1777, 2305
 6892, 2052, 1729, 1193, 1847
 6893, 1295, 2103, 2344,  594
 6894, 1704, 2473, 1707,  787
 6895, 1671, 1297, 1777, 1776
 6896, 1829,  947,  907,  908
 6897, 1449, 1800, 1836, 1803
 6898, 1793, 1862, 2010, 1797
 6899, 1871,  946,  947,  986
 6900, 2215, 1010, 1446, 2201
 6901, 1440, 1448, 1445, 1450
 6902, 1448, 1822, 1824,  492
 6903, 1794,  948,  908,  909
 6904, 2025, 1026, 1025,  986
 6905, 1814, 2129,  623,  624
 6906, 1933, 2155, 2153, 2158
 6907, 1651, 1650,  446,  447
 6908, 1651, 1650,  447, 2101
 6909, 2162,  951,  950,  911
 6910, 2126, 2182, 2132, 2127
 6911, 1352,  586,  587,  626
 6912, 2246,  510, 2269,  471
 6913, 2019,  952,  951,  912
 6914, 1871, 1792, 1389, 1384
 6915, 1543, 1396,  974, 1551
 6916, 1284, 1251, 1250, 1260
 6917, 1564, 1710,  993,  954
 6918, 1352, 1324, 1608,  626
 6919, 1930, 1070, 1931, 1109
 6920, 1541, 1653, 1543, 1566
 6921, 1743,  950,  951,  990
 6922, 1620, 1668, 1517,  482
 6923, 1285, 1739, 1251, 1744
 6924, 1989, 2267,  872,  833
 6925, 1554, 1559, 1558, 1556
 6926, 2023,  913,  914,  953
 6927, 1840, 1034, 1033,  994
 6928, 1819, 1072, 1071, 1032
 6929, 1989, 2410, 2267,  833
 6930, 1717, 1989, 2016, 2410
 6931, 2314,  996,  995,  956
 6932, 1840, 1034, 1841, 1842
 6933, 1717, 2016, 1989, 1715
 6934, 2018,  992,  991,  952
 6935, 2121, 1715, 1989,  871
 6936, 1564,  992,  953,  993
 6937, 2131,  758,  757,  718
 6938, 1375, 1702,  670,  671
 6939, 2064, 1375, 1376, 1377
 6940, 1867, 2064, 1194, 1195
 6941, 1635,  582,  581,  542
 6942, 1869, 2052, 1846, 1986
 6943, 1951, 1036, 1952, 1207
 6944, 1818, 1843, 2311, 2151
 6945, 1364,  919, 1359,  880
 6946, 1840,  995, 1034,  994
 6947, 1377, 1376, 1194,  121
 6948, 1377, 1376,  121,  632
 6949, 1884, 2064, 1377, 1702
 6950, 1377,  122, 1884,  671
 6951, 1272, 1277, 1276, 2144
 6952, 1281, 1292, 1291, 2227
 6953, 1633,  541,  581,  580
 6954, 1256,  426,  427,  466
 6955, 2220,  997,  957,  958
 6956, 2220,  997,  996,  957
 6957, 2000,  958,  918,  919
 6958, 1958,  998,  958,  959
 6959, 1272, 1278, 1277, 1279
 6960, 1281, 1275, 1283, 1276
 6961, 2366, 1342, 2286, 2144
 6962, 2003,  958,  919,  959
 6963, 1991, 1273, 1275, 2380
 6964, 1788,  575, 1789,  576
 6965, 1483,  960, 1000,  999
 6966, 1272, 2144, 1342, 1280
 6967, 1274, 2144, 1276, 2286
 6968, 1938,  636, 1942,  635
 6969, 1939,  675, 1942,  636
 6970, 1942, 2411, 2472, 2473
 6971, 1482,  961,  960,  921
 6972, 1714, 2150, 1592, 1593
 6973, 1368, 1371, 1370, 1958
 6974, 1263,  301, 2089,  298
 6975, 2473, 2433, 1941, 1936
 6976, 1660,  456, 1456,  417
 6977, 1938, 2411, 2166,  635
 6978, 2258,  771, 1812,  732
 6979, 1810, 2258, 2187, 1812
 6980, 1079, 1878, 1764, 1765
 6981, 2252,  538, 1687, 2099
 6982, 2209, 1078, 2134, 1077
 6983, 2236,  962, 1001,  961
 6984, 2252, 1876,  576,  577
 6985, 2464, 2258, 1680, 1683
 6986, 2258,  732, 1812, 2466
 6987, 1265, 1660, 1662, 1666
 6988,  925, 1732, 1266,  924
 6989, 2176,  573,  534,  574
 6990, 2146,  534, 2145,  533
 6991, 2324, 2323, 2391, 1005
 6992, 1732,  962, 1485,  923
 6993, 2060, 2063, 1410, 2225
 6994, 2349, 1043, 1042, 1003
 6995, 1754, 2213, 1756, 1755
 6996, 2147, 2060, 2323, 1659
 6997, 2189, 2230, 1451,  529
 6998, 2222,  966,  926,  927
 6999, 2323, 1005, 1004,  965
 7000, 1798, 1833, 1903, 1801
 7001, 2323,  966, 2391, 1005
 7002, 2038,  784,  823,  783
 7003, 2060, 2323, 2062, 2391
 7004, 1455, 2060, 2062, 1408
 7005, 1770, 2115, 2260, 2376
 7006, 1596,  776,  737,  777
 7007, 2393, 2114,  694, 2389
 7008, 1334,  737,  188,  189
 7009, 2393,  140, 2389,  694
 7010, 1441,  930,  931,  970
 7011, 1226, 1228, 1224, 2278
 7012, 1451,  490, 1445,  491
 7013, 2393, 2114,  695,  694
 7014, 1228, 2393, 1926,  804
 7015, 1394,  972,  933,  973
 7016, 2113, 1769,  693,  654
 7017, 2202,  973, 1012,  972
 7018, 1598,  644,  645,  684
 7019, 2249,  807, 2112,  768
 7020, 1436, 2256, 1438, 2255
 7021, 1877, 2113, 2112, 2249
 7022, 1805, 2364, 2184, 1806
 7023, 2453, 2184, 2364,  691
 7024, 2439,  740,  192,  741
 7025, 2450, 1167, 2451,  190
 7026, 1526, 1091, 1090, 1051
 7027, 1465,  645,  605,  606
 7028, 2452,  807,  143,  142
 7029, 1572, 1504,  273,  274
 7030, 2453, 2452, 2188,  808
 7031, 2388,  142, 2452,  692
 7032, 1685, 1679, 1895, 2168
 7033, 2201, 1011,  971,  972
 7034, 1543,  974, 1396,  935
 7035, 1895,  686, 2470, 1772
 7036, 1501, 1013, 1052, 1012
 7037, 2239, 1050, 1011, 1051
 7038, 1332, 1338, 1865, 1335
 7039, 1332, 1894, 1685, 1897
 7040, 1657,   59, 2399,  317
 7041, 1655, 1362, 1994, 1365
 7042, 2272, 1015,  976, 1016
 7043, 2229,  975,  976, 1015
 7044, 1355, 1361, 1364, 1359
 7045, 1654,  975,  936,  976
 7046, 1655, 1657, 1994, 1656
 7047, 1657,  317, 1994,  314
 7048, 1657, 2400, 1656,  843
 7049, 2148,  556,  516,  517
 7050, 2056, 2118, 1870, 2117
 7051, 2047,  782, 2085,  783
 7052, 2291,  536, 2250,  535
 7053,  497, 2291, 1688, 2244
 7054, 2177, 1787,  574, 2250
 7055, 1689, 1691, 1693, 1736
 7056, 1516,  481, 1695,  442
 7057, 2213, 1766, 2125, 1804
 7058, 1643, 2287, 1642, 2392
 7059, 2057, 1020, 1060, 1059
 7060, 1673,  232,  235,  231
 7061, 2119,  941,  942,  981
 7062, 2117, 1020, 1019,  980
 7063, 2057, 1021, 1060, 1020
 7064,  414,  415,  375, 1642
 7065, 1707,  787, 2473,  786
 7066, 1459,  415, 2287,  376
 7067, 1643, 1963,  288,  289
 7068, 1584, 1290, 1591, 2095
 7069, 1838, 2096,  219,   33
 7070, 1590, 1586, 1839, 1239
 7071, 2345,  228, 1675, 2348
 7072, 2093,  905, 2095,  904
 7073, 1643, 2287, 2392,  288
 7074, 1642, 2392,  375,  374
 7075, 1457,  414, 1642,  415
 7076, 2345, 1022,  982,  983
 7077, 1406, 1642,  414, 1644
 7078, 1401, 1667, 1644, 1407
 7079, 1252, 1744, 1831, 1253
 7080, 2454, 2187, 2461,  810
 7081, 1182,  206, 1947, 2460
 7082, 1910, 1180, 1183, 1179
 7083, 2461, 2462,  146,  811
 7084, 2461, 2187,  811,  810
 7085, 1880,  213, 1179,   10
 7086, 1643,  285, 2392, 2277
 7087, 1648, 2028, 2027, 1747
 7088, 2029, 2386,  284,  281
 7089, 2030, 2027, 1640,  283
 7090, 1988, 2181,  552,  591
 7091, 1739,  988, 1796,  949
 7092, 1701, 1702,  710,  709
 7093, 2027,  284, 2387,  287
 7094, 1735, 2068,  852, 1747
 7095, 1803, 1934, 1802, 1836
 7096, 2262, 1047, 1934, 1048
 7097, 1739,  988,  949,  989
 7098, 1447, 2156, 1934, 1443
 7099, 1316,  755,  716,  756
 7100, 1794,  909, 1797,  948
 7101, 1986, 1064, 1024, 1025
 7102, 1544,  752,  712,  713
 7103, 2156, 1934, 1443, 1009
 7104, 1794,  948, 1792,  947
 7105, 2426,  791,  127,  126
 7106, 1828, 1934, 1008, 1443
 7107, 2453, 2364, 2184, 2188
 7108, 1738, 1028,  988,  989
 7109, 1919, 1814, 1916, 1920
 7110, 2023, 1479,  953,  914
 7111, 1244,  395,  434,  394
 7112, 1353,  548,  549,  588
 7113, 1749, 2185, 1750, 1812
 7114, 1118, 1079, 1878, 1764
 7115, 1783, 1066, 1106, 1105
 7116, 1558,  991, 1742, 2018
 7117, 1249, 1027, 1028, 1067
 7118, 1967,  507,  508,  547
 7119, 2364,  692, 2452,  691
 7120, 1918, 1815, 1931, 1559
 7121, 2453, 2184,  691,  690
 7122, 1246, 1731, 1249, 1883
 7123, 1558,  991,  992, 1031
 7124, 1635,  543, 2151,  582
 7125, 1476,  508, 1967,  507
 7126, 1564,  953,  954,  993
 7127, 1559, 1031, 1071, 1070
 7128, 2188, 2185,  809,  770
 7129, 1420, 1421, 1613, 1479
 7130, 1350, 1030, 1347, 1029
 7131, 1749, 1811, 1806, 2184
 7132, 1805, 1750, 2248, 1217
 7133, 2425,  705, 2378,  706
 7134, 2178, 1718, 1108, 1147
 7135, 1841, 1840, 2313,  995
 7136, 1563,  993,  994, 1033
 7137, 1782, 2378, 1786, 1785
 7138, 1785, 1317, 1786, 1782
 7139, 1786,  755, 1785,  794
 7140, 1710,  993,  954,  994
 7141, 2001, 1573, 1257, 1574
 7142, 2314,  957,  996,  956
 7143, 1786, 1790, 1317,  754
 7144, 2425, 2378, 2377,  706
 7145, 2313,  995,  994,  955
 7146, 1841, 1035, 1034,  995
 7147, 1893, 1469, 1922, 1471
 7148,  424, 1366, 1258, 1637
 7149, 1597, 2302,  778,  739
 7150, 1372, 1490, 1367, 1268
 7151, 1951, 1036, 1959,  997
 7152, 1632,  540,  541,  580
 7153, 1959,  997, 1036,  996
 7154, 2091, 1709, 1426, 2088
 7155, 1958,  958,  998,  997
 7156, 1373,  501,  502,  541
 7157, 1426, 2302, 2091, 1427
 7158, 1597, 1890, 2302, 1893
 7159, 1362, 2263, 1994, 1993
 7160, 1928, 2196, 2133, 2261
 7161, 1371,  999,  959,  960
 7162, 2401,  578,  538,  539
 7163, 2311, 2198, 1592,  504
 7164, 1464, 1599, 1600, 1594
 7165, 1815, 1559, 1562, 1819
 7166, 1353, 2120, 1740,  549
 7167, 1606, 1255,  589, 1260
 7168, 1253, 1740,  511,  550
 7169, 2221, 2099,  499,  500
 7170, 1740, 1285, 1744, 2120
 7171, 1787,  614,  574,  575
 7172, 1228, 2463, 1773,  765
 7173, 1231,  577, 2401,  578
 7174, 1445,  452, 1450,  491
 7175, 1285, 1353, 2120, 1740
 7176, 1555, 1474, 1967, 1560
 7177, 1755, 1041, 1040, 1001
 7178, 1225, 1115, 1076, 1116
 7179, 1661, 1659, 2147, 2289
 7180, 1945, 1004, 1003,  964
 7181, 2060, 2062, 2323, 2222
 7182, 2061,  968, 1007,  967
 7183, 1800, 1832, 1833, 1837
 7184, 1732,  923, 1976,  924
 7185, 2248,  769,  768,  729
 7186, 1919, 1927, 1816, 2129
 7187, 1449, 1828, 1443, 1934
 7188, 1629,  883, 1628,  884
 7189, 1655, 1656, 1362, 1484
 7190, 2059, 2251, 2141, 2176
 7191, 1934, 1047, 1836, 1008
 7192, 1631,  305, 2321,  308
 7193, 2359, 2321,  846,  845
 7194, 1265, 1662, 1660, 1664
 7195, 1629,  884, 1976,  923
 7196, 1750, 2248,  730,  769
 7197, 1228, 1222, 1221, 1224
 7198, 2262, 1047, 1048, 1087
 7199, 2257, 1758, 1122, 1218
 7200, 1443, 1009,  969,  970
 7201, 1623, 1626, 1625, 1628
 7202, 2058, 1045, 1044, 1005
 7203, 1467, 1465, 2175,  606
 7204, 1302,  411,  412,  451
 7205, 1392, 1394,  933,  934
 7206, 1623, 1624, 1631, 1625
 7207, 2194,   53,  848,   54
 7208,  305, 1263,  301, 1631
 7209, 2239, 1011, 1012, 1051
 7210, 1446, 1010, 1009,  970
 7211, 2048, 2037, 1775, 2358
 7212, 2158, 1048, 1088, 1087
 7213, 1936, 2039, 2433, 1941
 7214, 2156, 1009, 1010, 1049
 7215, 2140, 1122, 1083, 1123
 7216, 1939, 1775, 2037, 1941
 7217, 2037, 1941,  824,  785
 7218, 2202, 1012, 1011,  972
 7219, 2155, 2230, 2203, 1451
 7220, 1386, 1971, 1970, 1972
 7221, 2212, 1949, 1947, 2361
 7222, 1650, 2101,  486,  447
 7223, 1594, 1600, 1471, 1596
 7224, 1861, 1232, 1830, 2212
 7225, 1909, 1910, 1179, 1180
 7226, 1909, 1179, 1910, 2460
 7227, 1571,  447,  407,  408
 7228, 1550, 1974, 2381, 2419
 7229, 1909, 1829, 2460, 1910
 7230, 2168,  649, 2169,  648
 7231, 1809, 2168, 1859,  609
 7232, 2272,  976,  977, 1016
 7233, 1904, 1684, 1809, 2168
 7234,  680, 2172, 1431, 2383
 7235, 2101,  448, 2160,  487
 7236,  779, 2300, 2172,  818
 7237, 1904, 2137, 1809, 1906
 7238, 2004,  261,  265,  264
 7239, 1522, 1982,  558, 1983
 7240, 1975, 1517,  520,  481
 7241, 1674, 1100, 1060, 1061
 7242, 2107, 1016, 1017, 1056
 7243, 2070, 1014, 1015, 1054
 7244, 2088, 1131, 1130, 1091
 7245, 1684, 1809, 2168, 1859
 7246, 1226, 1908, 2463, 1913
 7247, 2107, 1055, 1016, 1056
 7248, 1914,  697, 2278,  658
 7249, 1914,  658, 2278, 1950
 7250, 1925, 2357,  802, 1961
 7251, 1511,  977,  978, 1017
 7252, 1960, 1913,  763,  724
 7253, 1439, 1132, 1131, 1092
 7254, 2357,  802, 1961,  801
 7255, 1939,  636,  637,  676
 7256, 2093, 1293, 2094, 2142
 7257, 1993, 2265, 2396,  315
 7258, 1514,  980, 1019,  979
 7259, 1574, 1358, 1359, 1360
 7260, 1657, 2346,  314, 1994
 7261, 1360, 1577, 2015, 2017
 7262, 1508, 1057, 1018, 1058
 7263, 1298, 1705, 2275,  788
 7264, 2396,  315,   91,   92
 7265, 1519, 1937, 1973, 1778
 7266, 1436, 1547, 2280, 2071
 7267, 2263, 2347, 1993, 2264
 7268, 1642,  374,  414,  413
 7269, 1671, 1060, 1099, 1059
 7270, 1355, 1356, 1362, 1365
 7271, 2345, 1022,  983,   30
 7272, 1870, 1020,  981, 1021
 7273, 1298, 1299, 2275, 1705
 7274, 2433,  786,  746,  747
 7275, 2281, 2107, 2280, 1055
 7276, 2396,   92, 2394,  312
 7277, 1675,  231,  228,  232
 7278, 1655, 1362, 1656, 1994
 7279, 1813, 2184,  690,  651
 7280, 1778, 1973, 1137, 2305
 7281, 1813,  651, 1811, 2184
 7282, 1819, 1845, 1072, 1033
 7283, 1810, 1813, 2185, 2187
 7284, 1901, 1813, 2186,  650
 7285, 1847,   10,  984, 1023
 7286, 1749, 2184, 1813, 1811
 7287, 2377,  668, 2090,  707
 7288, 1887,  213, 1847, 1193
 7289, 1729, 1023, 1062,  212
 7290, 2461, 2187, 1813, 2186
 7291, 2454,  809,  145,  144
 7292, 1847,  212,   10, 1023
 7293, 1752, 1753, 1749, 1811
 7294, 1730, 1105, 1065, 1066
 7295, 2453,  144, 2454,  690
 7296, 1882, 2192, 1065, 1064
 7297, 1986, 1064, 1063, 1024
 7298, 1730, 1889, 1104, 1105
 7299, 2454, 2461, 2187, 1813
 7300, 1790,  754,  753,  714
 7301, 2187, 1812, 2185, 1810
 7302, 2185, 2187,  810,  771
 7303, 1750, 2185,  770, 1812
 7304, 1805, 1877, 2249, 2364
 7305, 2453, 2188, 2185,  809
 7306, 1883, 1731, 1066, 1065
 7307, 1742, 2018,  991,  952
 7308, 1745,  988, 1027,  987
 7309, 1449, 1448, 1824, 1799
 7310, 1448,  492, 1450, 1822
 7311, 1346, 1554, 1969, 1916
 7312, 1555, 1554, 1559, 1815
 7313, 1833, 1834, 2146, 2145
 7314, 2126, 2130, 2133, 2132
 7315, 1720,  757,  717,  718
 7316, 1738, 1028, 1027,  988
 7317, 2283, 2461,  811, 2462
 7318, 1610, 1067, 1068, 1107
 7319, 1783, 1066, 1067, 1106
 7320, 1530,  752, 1886,  753
 7321, 2283, 2186, 2461, 2462
 7322, 1350,  991, 1030,  990
 7323, 1558, 1030,  991, 1031
 7324, 1347, 1068, 1029, 1069
 7325, 2456, 2457,  131,  703
 7326, 2454, 2185, 2187,  810
 7327, 2185,  770, 1812,  771
 7328, 2283, 2187, 2461, 2186
 7329, 1560,  545, 2150,  506
 7330, 2377,  706, 2378,  667
 7331, 1556,  993, 1032,  992
 7332, 2454, 2185,  810,  809
 7333, 1917, 1070, 1030, 1031
 7334, 1818, 1817, 2311, 2150
 7335, 1762,  622,  583,  623
 7336, 2453, 2454, 2184,  690
 7337, 2137,  650, 2186,  649
 7338, 1207, 1075, 1204, 1074
 7339, 1899, 2186, 2283, 2169
 7340, 1563, 1032,  993, 1033
 7341, 1633, 1632, 2170, 1956
 7342, 1559, 1929, 1931, 1071
 7343, 2114,  655,  656,  695
 7344, 2454,  145, 2461,  689
 7345, 2137, 2186, 2169,  649
 7346, 2186, 2462, 2169,  688
 7347, 2461, 2462, 2186,  688
 7348, 1845, 1033, 1073, 1072
 7349, 1845, 1034, 1073, 1033
 7350, 1212, 1034, 1035, 1074
 7351, 1952, 1956, 1207, 1911
 7352, 1205, 1207, 1911, 1204
 7353, 2461,  810,  146,  145
 7354, 1036, 1953, 1952, 1037
 7355, 2461, 2186, 1813,  689
 7356, 1865, 1897,  775,  814
 7357,  816, 1599, 1594,  777
 7358, 2309, 2312, 1378, 2198
 7359, 1714, 1818, 1841, 2309
 7360, 1760, 2355, 2368, 2471
 7361, 1338, 1865,  775,  776
 7362, 1594, 1471, 1463, 1923
 7363, 1953, 1037,  998, 1038
 7364, 1599, 2429,  815,  816
 7365, 2115,  767,  727,  728
 7366, 2376,  768,  728,  729
 7367, 1755, 1041, 1001, 1002
 7368, 1860, 1946, 1329, 1873
 7369, 1419, 1605,  333,  334
 7370, 2074, 1605,  336, 2076
 7371, 2407,   65, 2421,  335
 7372, 2444, 2012,  726, 2463
 7373, 2097, 1876, 1875, 2252
 7374, 2376, 2260, 1877, 2247
 7375, 2209, 1077, 1038, 1078
 7376, 1230,  579, 2170,  618
 7377, 2002, 1358, 1366, 1367
 7378, 1424,  429, 1423,  390
 7379, 1750,  769,  730,  770
 7380, 1711, 1042, 1041, 1002
 7381, 1752, 1759, 1758, 2140
 7382, 1711, 1003, 1042, 1002
 7383, 1120, 1081, 1219, 1121
 7384, 1807,  614,  654,  653
 7385, 2111, 2134, 1078, 1117
 7386, 1424, 2080, 2020, 2021
 7387, 1712, 1082, 1751, 1081
 7388, 1906, 2145,  572, 1801
 7389, 2141, 2177, 2145, 2176
 7390, 2324, 1043, 2349, 1004
 7391, 1701, 1884,  710, 1702
 7392, 1825,  124,  710,    8
 7393, 1377,  671, 1884, 1702
 7394, 1535, 1702, 1530, 1531
 7395, 2062, 2323,  966, 2391
 7396, 1679, 1899, 1680, 2283
 7397, 1934, 1048, 1047, 1008
 7398, 1837, 1046, 1045, 1006
 7399, 1933, 2223, 1447, 1827
 7400, 1826,  203, 1200, 1201
 7401, 1798, 1903, 1832, 1905
 7402, 1700, 1884, 1197, 1200
 7403, 1798, 1903, 1833, 1832
 7404, 1682, 1680, 2258, 1683
 7405, 1531, 1320, 1700, 1980
 7406, 1321, 1826, 1320, 1980
 7407, 1337, 1471, 1596, 1922
 7408, 1874, 2158, 1872, 2262
 7409, 2156, 1934, 1009, 1048
 7410, 2215, 1050, 1010, 1011
 7411, 1536, 1526, 2239, 1501
 7412, 1364, 1359, 1361,  880
 7413, 1686, 1125, 1124, 1085
 7414, 1826, 1201, 1980, 1321
 7415, 2135, 2115, 1773, 2445
 7416, 2115,  728, 2445, 2443
 7417, 1770, 1773, 2115, 2116
 7418, 2135, 1157, 2445, 1156
 7419, 1891, 1088, 1089, 1128
 7420, 2215, 1050, 1049, 1010
 7421, 1764, 2260, 1119, 2247
 7422, 1328, 1126, 1086, 1087
 7423, 2260, 2247, 2443, 1158
 7424, 1921, 1090, 1050, 1051
 7425, 2419,  562, 2255,  561
 7426, 2260, 2247, 1158, 1119
 7427, 2462, 2470,  147,  812
 7428, 2283, 2169, 2462, 1898
 7429, 1438,  640, 2315,  639
 7430, 1501, 1052, 1051, 1012
 7431, 2462,  687, 2169,  688
 7432, 2281, 2280, 2266, 1094
 7433, 1438, 2046,  639, 2315
 7434, 2087,  781,  782,  821
 7435, 1425, 1170, 2091, 1131
 7436, 2281, 1054, 1055, 1094
 7437, 2073, 1093, 1053, 1054
 7438, 1810, 1899, 1901, 2186
 7439, 1537,  565, 1468,  604
 7440, 2180, 1885, 2372, 1528
 7441, 1783, 1727, 1612, 1610
 7442, 1502, 1053, 1092, 1052
 7443, 1725, 2372, 1726, 2377
 7444, 1881, 1532, 1103, 1534
 7445, 1616,  979,  939,  940
 7446, 2253, 1055, 1054, 1015
 7447, 1439, 1132, 1092, 1093
 7448, 1534, 1889, 1143, 1104
 7449, 2070, 1053, 1014, 1054
 7450, 1525, 1974, 1550, 1547
 7451, 1524, 1096, 1057, 1097
 7452, 1507, 1018, 1057, 1017
 7453, 1522, 1981,  559,  520
 7454, 2322, 1889, 2231, 1886
 7455, 1940, 2037, 1939, 2048
 7456, 1544,  713, 2231, 1886
 7457, 1881, 2180, 1882, 1532
 7458, 1367, 1368, 1372, 1268
 7459, 1881, 1882, 2180, 1883
 7460, 1434, 2084, 2332, 2083
 7461, 1533, 1142, 1534, 2232
 7462, 2331, 1433,  741,  742
 7463, 2433,  786, 1941,  785
 7464, 2430, 1941, 1942, 2473
 7465, 2331, 2332, 1433,  742
 7466, 1942,  674, 2472, 2411
 7467, 2472, 2474,  673,  161
 7468, 2472,  825, 2473,  826
 7469, 2441, 2131,  718,  719
 7470, 2336,   29, 2348,  231
 7471, 1676, 1022, 2348, 1061
 7472, 1702, 1530, 1531, 1528
 7473, 1676, 1060, 1021, 1061
 7474, 1777, 2306, 2305, 1138
 7475, 2179, 1930, 2131, 2178
 7476, 1776, 1300, 2351, 1673
 7477, 1348, 1919, 2179, 1918
 7478, 1671, 1098, 1059, 1099
 7479, 2441, 1720,  718, 2131
 7480, 1629, 1628, 1976,  884
 7481, 1728, 1101, 1062, 1102
 7482,  554,  553, 1385,  514
 7483, 1263,  305,  301,  302
 7484, 1375,  593, 1376,  632
 7485, 2441, 2178, 2131, 1932
 7486, 1658,  926,  886,  887
 7487, 1403, 1140,  210, 1101
 7488, 1721, 2179, 1930, 1918
 7489, 1987, 1986, 1384, 2025
 7490, 1532, 1103, 1102, 1063
 7491, 1250, 1606, 1255, 1254
 7492, 1721, 1107, 1611, 1068
 7493, 1791, 1379, 1252, 1831
 7494, 2235,  722,  761,  721
 7495, 1881, 1064, 1065, 1104
 7496, 2441, 2178, 1932, 1148
 7497, 1535,  791,  790,  751
 7498, 1786,  754, 2390, 1790
 7499, 1534, 1103, 1104, 1143
 7500, 1253, 2026,  512, 1379
 7501, 1252, 1248, 1253, 2026
 7502, 1730, 1105, 1104, 1065
 7503, 1532, 1534, 1533, 1103
 7504, 1249, 1066, 1027, 1067
 7505, 2246, 2163, 1831,  472
 7506, 1739, 1738,  989, 1325
 7507, 1530,  792,  791,  752
 7508, 2121, 1795,  911, 2162
 7509, 2046,  677, 2048,  638
 7510, 1327, 1068, 1067, 1028
 7511, 1347, 1029, 1030, 1069
 7512, 1940, 2038, 2047, 2036
 7513, 2049, 1520,  598,  597
 7514, 1718, 1107, 1108, 1147
 7515, 2441, 2131, 2178, 1720
 7516, 1775,  823,  159,  158
 7517, 1549, 1437, 2083, 2041
 7518, 2193, 2127, 1920,  664
 7519, 1721, 1068, 1108, 1107
 7520, 2261,  173,  721,  172
 7521, 1966, 1353, 1354,  548
 7522, 2178, 1147, 1108, 1148
 7523, 1718, 1724, 1107, 1146
 7524, 1721, 1068, 1069, 1108
 7525, 2038, 2358, 2037, 2048
 7526, 2430,  675, 1775,  159
 7527, 1559, 1031, 1032, 1071
 7528, 1410, 1458, 2225, 2063
 7529, 1558, 1559, 1917, 1031
 7530, 1819, 1033, 1072, 1032
 7531, 2060, 2225, 1410, 1456
 7532, 1410, 1458, 2063,  454
 7533, 1834,  533, 2146, 2145
 7534, 2063,  494,  493,  454
 7535, 1844, 1841, 1843, 1959
 7536, 1237,  229,  226,  230
 7537, 2133, 2183, 2128, 2132
 7538, 1696, 2128, 1703,  700
 7539, 2133, 2183,  759, 2235
 7540, 1214,  622,  621,  582
 7541, 1212, 1074, 1073, 1034
 7542, 1782, 1723, 1612, 1609
 7543, 1697, 2357,  762, 2368
 7544, 2420,  798, 2183, 1703
 7545, 1210, 1112, 1111, 1072
 7546, 1209,  621,  660,  620
 7547, 1696, 2197, 2235, 2133
 7548, 1210, 1113, 1112, 1073
 7549, 2380, 2294,  864,  903
 7550, 2441,  171, 1932,  719
 7551, 1932,  720,  171,  172
 7552, 1924,  696, 1926, 2278
 7553, 2279,  216, 1289, 2096
 7554, 1773,  726,  727,  766
 7555, 1760, 2196, 1151, 2471
 7556, 1907, 1206, 1912, 1204
 7557, 1930, 2178, 1932, 2131
 7558, 1928, 1148, 1930, 1109
 7559, 1776, 2351, 2352, 1139
 7560, 2353, 1299, 2306, 1705
 7561, 1777, 2305, 1137, 1138
 7562, 1954, 1037, 1038, 1077
 7563, 2134, 1077, 1078, 1117
 7564, 2059, 2251, 1712, 2141
 7565, 1773, 1226, 1774, 2463
 7566, 1671, 1776, 1672, 1297
 7567, 1704, 1297, 1298, 1299
 7568, 1757, 1079, 1078, 1039
 7569, 1787, 1789,  575, 2250
 7570, 1926, 1224,  696,  695
 7571, 1299, 1300,  237, 2352
 7572, 1713, 1041, 1042, 1081
 7573, 1300, 1673,  235,  234
 7574, 1764, 1079, 1080, 1119
 7575, 2247, 1159, 1119, 1120
 7576, 1294, 1296, 1298, 2273
 7577, 1750, 2188,  769,  770
 7578, 1300, 2351, 1673,  234
 7579, 1299, 1777, 1776, 2306
 7580, 1407, 1822, 1450,  453
 7581, 1398, 1565,  896, 2402
 7582, 1751, 1081, 1082, 1121
 7583, 2137,  611, 1901,  650
 7584, 1901, 1902,  612,  611
 7585, 2006, 2402,  857,  896
 7586, 1780,  897, 2006,  858
 7587, 1901,  611,  651,  650
 7588, 2139, 1083, 1082, 1043
 7589, 1848, 1566, 1850, 1651
 7590, 2324, 2058, 1044, 1005
 7591, 2138, 1084, 1083, 1044
 7592, 1848,  406, 2035, 1853
 7593, 2140, 1083, 1084, 1123
 7594, 1572, 1567, 1854, 2031
 7595, 1832, 1085, 1084, 1045
 7596, 1802, 1086, 2157, 1085
 7597, 2246, 1253, 1740,  511
 7598, 1738, 1249, 1028, 1327
 7599, 1252, 1379, 1253, 1831
 7600, 1905, 1124, 1123, 1084
 7601, 1837, 1836, 1046, 1007
 7602, 1895, 1859,  648,  647
 7603, 1245, 1255, 1248, 2181
 7604, 1551, 1501, 1012, 1013
 7605, 2464,  186, 2295,  734
 7606, 1802, 1085, 1046, 1086
 7607, 2262, 1086, 1047, 1087
 7608, 2156, 1049, 2158, 1048
 7609, 1245, 1731, 1738, 1249
 7610, 1600, 1891, 1466, 1462
 7611, 1250, 1255, 1251, 1245
 7612, 2284, 2378,  666, 1609
 7613, 2158, 1048, 1049, 1088
 7614, 1873, 1126, 1087, 1127
 7615, 2425,  794, 1785, 2468
 7616, 2425, 2378, 2468, 1785
 7617, 1329, 1165, 1126, 1166
 7618, 2424, 1786, 2425,  793
 7619, 1206, 1960, 2368, 1760
 7620, 1332, 1598, 1894, 1865
 7621, 1437, 1434, 1435, 2083
 7622, 1921, 1090, 1089, 1050
 7623, 1597,  778, 1923,  777
 7624, 2425,  793,  129,  128
 7625, 1608,  666, 2284,  665
 7626, 1537,  604, 1892,  603
 7627, 2301, 2383,  819, 2467
 7628, 1725, 2378, 1609,  667
 7629, 2424,  128, 2425,  706
 7630, 1438,  600,  601,  640
 7631, 1709, 1130, 1129, 1090
 7632, 1495, 1537,  564, 1538
 7633, 1492, 1496, 2191, 2228
 7634, 2378, 1609,  667,  666
 7635, 2394, 2303,   93,  382
 7636, 2347, 2396, 2394,  312
 7637, 2017, 1357,  322, 2015
 7638, 2073, 1093, 1092, 1053
 7639, 2451, 1922, 2465, 1168
 7640, 1657, 2346, 1994, 1656
 7641, 2172, 2173,  818,  681
 7642, 1550, 2107, 1548, 2280
 7643, 1616,  940, 1615,  979
 7644, 2326, 2394,  309,  312
 7645, 1761, 1562, 1563, 1819
 7646, 1433,  781,  741,  742
 7647, 2115,  766, 2116, 1773
 7648, 2280, 1095, 1094, 1055
 7649, 2045, 1549, 1135, 1134
 7650, 1770, 2112, 2115, 2376
 7651, 1435, 1434, 1132, 1133
 7652,  822, 2371, 2038, 2047
 7653, 2086, 1135, 1174, 1134
 7654, 2393,  804,  140,  139
 7655, 2038, 2358,  822,  823
 7656,  821, 2315, 2371, 2047
 7657, 1521, 1940, 2136, 1936
 7658, 1979, 1096, 1097, 1136
 7659, 2438,  199, 1176,  200
 7660, 1926, 1224, 2278,  696
 7661, 2001, 1714, 2309, 1592
 7662, 2304, 1973, 1137, 1136
 7663, 1804, 1877, 1805, 1807
 7664, 1973, 1097, 1098, 1137
 7665, 1671, 1673, 1776, 1674
 7666, 1926,  804, 2393,  139
 7667, 1296, 2411,  673,  634
 7668, 1769, 1767,  655,  654
 7669, 1785,  795, 2468,  794
 7670, 2117,  981, 1870, 1020
 7671, 1778, 1137, 1973, 1098
 7672, 2039, 2304, 2433, 2432
 7673, 1527, 1097, 1058, 1098
 7674, 1785, 1316,  755, 1317
 7675, 1672, 1300, 1673,  235
 7676, 1823, 1837, 1828, 1836
 7677, 2336, 2348, 1674, 1675
 7678, 1674, 1100, 1099, 1060
 7679, 1294, 1300,  235,  238
 7680, 1803, 1799, 1809, 1827
 7681, 1300,  234,  235,  238
 7682, 2353, 2437,  201,  749
 7683, 2351,   27, 1139, 1100
 7684, 1798, 1801, 1809, 1799
 7685, 1448, 1451, 1445,  491
 7686, 1800, 1837, 1823, 1836
 7687, 1863, 1385, 2234, 2065
 7688, 1403, 1140,  209,  210
 7689, 1319, 1140, 1403, 1101
 7690, 1879, 1909, 1880, 1887
 7691, 1867, 1192, 1195, 1191
 7692, 1879, 1909, 2460, 1880
 7693, 1868, 1531, 1539, 1528
 7694, 2105, 1101,  210,  211
 7695, 2180, 2372, 1985, 1528
 7696, 1826, 1200,  203,  202
 7697, 1215, 2235, 2197, 2196
 7698, 1539, 1529, 1532, 2180
 7699, 1249, 1731, 1027, 1066
 7700, 2372,  669,  629,  630
 7701, 1786,  794,  754,  755
 7702, 1367,  463, 1267, 1268
 7703, 1866, 2171, 1540, 1728
 7704, 1884, 1200,  122, 1197
 7705, 1532, 1103, 1063, 1064
 7706, 1884, 1200,  123,  122
 7707, 1881, 1103, 1064, 1104
 7708, 1319, 2232, 1320,  712
 7709, 1871,  946, 1879, 1829
 7710, 1825, 1701,  710,  124
 7711, 1259, 1267,  464, 2198
 7712, 1723, 1608, 1607, 1609
 7713, 1884,  671,  123,  710
 7714, 2425,  794, 1786, 1785
 7715, 1326, 1144,  168,  167
 7716, 2322, 1326, 1790,  715
 7717, 1317,  755,  754,  715
 7718, 1895, 1897, 1772, 2470
 7719, 2462, 1898, 2470,  812
 7720, 1724, 1106, 1146, 1145
 7721, 1895, 1897, 2470, 1898
 7722, 1610, 1106, 1067, 1107
 7723, 2470, 1772,  148,  813
 7724, 1931, 1070, 1110, 1109
 7725, 2456, 2132, 2182, 2127
 7726, 2470,  812, 1898,  813
 7727, 2074,  336, 1605,  337
 7728, 1720,  757,  756,  717
 7729, 2242, 2243, 2241, 2319
 7730, 1413, 1581,  427, 1578
 7731, 1257, 1592, 2001, 1259
 7732, 1415, 1578, 1414, 1413
 7733, 1928, 1110, 1929, 1111
 7734, 2001, 1259, 2198, 1267
 7735, 2318, 2319,  838,   63
 7736, 1928, 1150, 1149, 1110
 7737, 2170,  619,  579,  580
 7738, 1920, 2129,  663, 2127
 7739, 1579, 1577, 2242, 2240
 7740, 1258, 1357, 2015, 2325
 7741, 2355,  723,  722,  174
 7742, 2413, 2403,  387, 1576
 7743, 2368,  722,  762,  761
 7744, 1907, 1152, 1113, 1153
 7745, 2015, 2403,  321,  324
 7746, 2302,  739, 2465,  740
 7747, 2439, 1427, 2302,  740
 7748, 2368,  762,  722,  723
 7749, 1426, 2091, 2302, 1893
 7750, 1683, 1678, 2259, 1905
 7751, 2084,  742,  743,  782
 7752, 1907, 1114, 1115, 1154
 7753,  658, 1950, 2170, 2278
 7754, 1760, 1152, 2355, 1151
 7755, 2442, 2443,  181,  729
 7756, 1598, 2429,  683,  684
 7757, 1768, 1231, 1767, 1876
 7758, 2463,  765,  764,  725
 7759, 1224,  657,  696,  656
 7760, 1925, 2357,  763,  802
 7761, 2209, 1038, 1039, 1078
 7762, 1908, 1155, 1154, 1115
 7763, 2429,  150,  815,  151
 7764, 1756, 1040, 1041, 1080
 7765, 1338,  776, 1596, 1599
 7766, 2134, 1116, 1077, 1117
 7767, 2429,  683,  684,  150
 7768, 2135, 1774, 1117, 1156
 7769, 2249,  808,  768,  769
 7770, 1679, 1681, 1898, 1680
 7771, 1878, 1117, 1078, 1118
 7772, 2260, 1118, 1119, 1158
 7773, 2442,  730,  181,  182
 7774, 1686, 2259, 1125, 1333
 7775, 1678, 1679, 1685, 1684
 7776, 1764, 1118, 1079, 1119
 7777, 2464, 2295, 1680,  734
 7778, 1812, 2469, 2466,  732
 7779, 2442, 1158, 2247, 1159
 7780, 2295, 1681, 1336, 1333
 7781, 2213, 2245, 1789, 2250
 7782, 2295, 1333, 1336, 1164
 7783, 2258, 2466,  733,  732
 7784, 2295, 1164, 2259, 1333
 7785, 1217, 1121, 1160, 1120
 7786, 2140, 1122, 1758, 1083
 7787, 1759, 2258, 1812, 2257
 7788, 1758, 1082, 1083, 1122
 7789, 1751, 1220, 1218, 1758
 7790, 1758, 1121, 1082, 1122
 7791, 2259, 1333, 1164, 1125
 7792,  657,  658,  618, 2278
 7793, 1205, 1912, 1204, 1911
 7794, 1683, 1123, 1124, 1163
 7795, 2461, 2186,  689,  688
 7796, 2093, 1991, 1293, 2380
 7797, 1291, 1286, 1281, 1289
 7798, 2295, 2259, 1164, 1163
 7799, 2464, 2466, 1683, 1162
 7800, 2330,  244, 2227, 2328
 7801, 2454, 1813, 2184,  690
 7802, 2279, 1289, 2330, 2094
 7803, 2259, 1124, 1125, 1164
 7804, 1897,  814, 1772,  813
 7805, 1597,  738, 2451,  739
 7806, 2093,  904, 2380,  865
 7807, 2330,   11,  217,  216
 7808, 1328, 1126, 1125, 1086
 7809, 1681,  774,  773,  734
 7810, 2454, 1813, 2187, 2185
 7811, 1333, 1165, 1164, 1125
 7812, 1286, 1289, 1291,  220
 7813, 2158, 1088, 1873, 1087
 7814, 1798, 1802, 2157, 1905
 7815, 1873, 1087, 1088, 1127
 7816, 1922, 1128, 1129, 1168
 7817, 1596, 2450, 2451,  738
 7818, 1874, 2152, 1860, 2154
 7819, 1292, 2227,  243, 2328
 7820, 1586,  983, 1839, 2345
 7821, 1291, 1289, 2227, 2328
 7822, 1289,  219, 2096,  216
 7823, 2339, 1286,  221, 2233
 7824, 2302,  778,  739,  779
 7825, 2450, 1337, 1167, 1166
 7826, 1541, 1652, 1498, 1654
 7827, 1469, 1089, 1129, 1128
 7828, 2370,  368,  108,  107
 7829, 2439, 2465,  192,  740
 7830, 1431,  642,  602,  603
 7831, 2310,  266, 2005, 1779
 7832, 1709, 1130, 1090, 1091
 7833, 1092, 1131, 1439, 1091
 7834, 1435, 1133, 1132, 1093
 7835, 2173, 1890,  779,  778
 7836, 2091, 1130, 1131, 1170
 7837, 1542, 1496, 1551, 1503
 7838, 1492, 2228, 1495, 1497
 7839, 1435, 1133, 1093, 1094
 7840, 2331,  742,  193,  194
 7841, 2088, 2091, 1130, 1131
 7842, 1652, 2254, 1653, 2350
 7843,  619, 1950, 2170,  658
 7844, 2084, 2085,  782,  743
 7845, 1541, 1542, 1503, 1496
 7846, 1492, 2229, 1494, 2070
 7847, 2205, 2219, 1230, 1231
 7848, 1210, 1212, 1073, 1845
 7849, 2086, 2040, 2448, 1174
 7850, 2266, 1134, 1133, 1094
 7851, 2109, 1651, 1650,  446
 7852, 2042, 1432, 2087, 2315
 7853, 1708, 1430, 1426, 1709
 7854, 1425, 1132, 1434, 1171
 7855, 2086, 2448, 2449, 1173
 7856, 2036, 2448,  745,  744
 7857, 2331, 2332, 1425, 1433
 7858, 1428, 1437, 1434, 1435
 7859, 2039,  746,  785,  745
 7860, 1549, 1135, 1095, 1096
 7861, 2280, 1549, 1095, 1548
 7862, 2040, 1135, 1136, 1175
 7863, 1439, 1425, 1428, 2088
 7864, 1979, 1135, 1096, 1136
 7865, 2331, 1427,  741, 1433
 7866, 2472, 2474, 2411,  673
 7867, 2102, 1675, 1239,  229
 7868, 2432, 1176,  199, 1175
 7869, 2274, 2474, 1706,  827
 7870, 1298,  241, 2274, 2275
 7871, 1973, 1136, 1097, 1137
 7872, 1299, 2275, 2353,  240
 7873, 1778, 1098, 1099, 1138
 7874, 2166, 1296,  634, 2411
 7875, 1704,  787, 1706, 2473
 7876, 1776, 1138, 1099, 1139
 7877, 2352, 1776, 2306, 1299
 7878, 1300, 2352, 2351,  237
 7879, 2353, 2306, 2437, 1705
 7880, 2438, 2305, 1177, 1176
 7881, 1987, 1539, 2180, 1985
 7882, 1530, 1528, 1702, 2090
 7883, 2090, 1702,  669, 1528
 7884, 1319, 1101, 1141, 1140
 7885, 1404,  209,    9, 1202
 7886, 1907, 1912, 1206, 1913
 7887, 1375, 1528, 1985,  631
 7888, 2372, 1985,  630, 1247
 7889, 2180, 2372, 1247, 1985
 7890, 1404,    9,  711,  204
 7891, 1879,  985, 1846,  984
 7892, 2430,  674,  159,  160
 7893, 1879,  984, 1846, 1847
 7894, 1533, 1142, 1141, 1102
 7895, 2052, 1847, 1846, 1729
 7896, 1533, 1103, 1142, 1102
 7897, 2390,  753,  754,  793
 7898, 2232,  164,  165,  713
 7899, 2052, 1986, 1728, 1846
 7900, 1319, 1533, 1141, 1102
 7901, 2231, 1142, 1143,  166
 7902, 1534, 1142, 1103, 1143
 7903, 1869, 1871, 1986, 1846
 7904, 2322, 2231, 1889, 1143
 7905, 1889, 1144, 1143, 1104
 7906, 1923, 2173,  682,  817
 7907, 2322, 1326, 1144, 1784
 7908,  682,  817, 1595, 1923
 7909, 1595, 1923,  817,  816
 7910, 1471, 1600, 1594, 1464
 7911, 1316,  716,  717,  756
 7912, 1860, 2153, 2175, 1466
 7913, 1326,  167,  168,  716
 7914, 1315, 1326, 1724, 1145
 7915, 1784, 1105, 1106, 1145
 7916, 1784, 1145, 1144, 1105
 7917, 2440, 1315,  169,  717
 7918, 1724, 1106, 1107, 1146
 7919, 1919, 1929, 1816, 1927
 7920, 2440, 1146, 1147,  170
 7921, 1594,  816, 1923, 1595
 7922, 1469, 1471, 1462, 1891
 7923, 1955,  699, 1915, 1698
 7924, 2086, 1174, 2448, 1173
 7925, 1718, 1146, 1107, 1147
 7926, 1928, 1929, 2196, 1111
 7927, 1696, 1699,  661,  700
 7928, 1203, 1216, 1214, 1634
 7929, 1931, 1071, 1110, 1070
 7930, 2130,  759, 2132,  758
 7931, 1928, 1109, 1110, 1149
 7932, 1203, 1204, 1212, 1207
 7933, 1215, 2368, 1697, 2235
 7934, 2312,  503, 1374, 1267
 7935,  760, 2235, 2261,  759
 7936, 1211, 2165, 1213, 1762
 7937, 2197, 2133, 1927, 2196
 7938, 2196, 1111, 1151, 1150
 7939, 1760, 2196, 1112, 1151
 7940, 1907, 1913, 2356, 2354
 7941, 2355, 1151, 1152,  175
 7942, 1214,  621, 1634,  582
 7943, 1213, 2165,  661,  622
 7944, 1760, 1151, 1112, 1152
 7945, 1203, 1209, 1634, 1213
 7946, 1913, 1925, 2357,  763
 7947, 1960,  762, 2357, 2368
 7948, 1907, 1204, 1114, 1113
 7949, 1213, 2165,  622, 1762
 7950, 1908, 2012, 2354, 1154
 7951, 2332, 2084, 1434, 1433
 7952, 2354, 1153, 1154,  177
 7953, 1907, 1153, 1114, 1154
 7954, 1907, 1908, 2354, 1154
 7955, 2087, 2467, 2385, 2384
 7956, 2012, 1154, 1155,  178
 7957, 2084,  781, 1433,  742
 7958, 1635, 1633, 1632,  542
 7959, 2464,  733, 2258, 2466
 7960, 1682, 1683, 2258, 2257
 7961, 1678, 1682, 1905, 1683
 7962, 1908, 1155, 1115, 1116
 7963, 1913,  724,  725,  764
 7964, 1774, 1116, 1156, 1155
 7965,  767, 2112, 2115, 2116
 7966, 1774, 1116, 1117, 1156
 7967, 2445, 1156, 1157,  180
 7968, 1905, 1678, 2259, 2157
 7969, 2152, 1859, 1874, 1332
 7970, 2135, 1156, 1117, 1157
 7971, 2464, 2466, 2258, 1683
 7972, 1763, 1770, 1878, 1877
 7973, 2443, 1157, 1158,  181
 7974, 2260, 1157, 1118, 1158
 7975, 1681,  735, 1335,  774
 7976, 1678, 1904, 1682, 1679
 7977, 2442, 2248, 2475, 1217
 7978, 2247, 1159, 1158, 1119
 7979, 2442, 2475,  182, 1159
 7980, 1686, 1332, 1328, 1684
 7981, 1758, 1759, 2257, 2140
 7982, 2475, 1159, 1160,  183
 7983, 2464, 2295, 1163, 2259
 7984, 2464,  185,  186,  734
 7985, 1217, 1160, 1159, 1120
 7986, 2295, 1163,  187,  186
 7987, 1218, 1160, 1121, 1161
 7988, 1226, 1774, 1908, 1225
 7989, 2157, 1905, 1124, 2259
 7990, 2469, 1160, 1161,  184
 7991, 1683, 2257, 1123, 1162
 7992, 1218, 2257, 1161, 1122
 7993, 2257, 1123, 1162, 1122
 7994, 2464, 2259, 1683, 1680
 7995, 1597, 2302, 2465, 1893
 7996, 2469, 2466,  184, 1161
 7997, 2464, 1162, 1163,  186
 7998, 1680,  773,  733,  734
 7999, 1683, 1162, 1123, 1163
 8000, 2439, 2091, 1170, 1169
 8001, 1798, 1904, 1684, 1809
 8002, 2259, 1163, 1124, 1164
 8003, 2295, 1336, 1681,  735
 8004, 2439, 2302, 1427, 2091
 8005, 1708, 1470, 1892, 1537
 8006, 1428, 1426, 1427, 1432
 8007, 2295, 1163, 1164,  187
 8008, 1206, 2357, 1913, 1912
 8009, 1336, 1164, 1165,  188
 8010, 1432, 2301, 1427, 1433
 8011, 1333, 1165, 1125, 1126
 8012, 2439, 2091, 1425, 1170
 8013, 2450, 1167,  190, 1166
 8014, 1334,  737, 2450, 1337
 8015, 1334, 1165, 1166,  189
 8016, 1596,  737,  738,  777
 8017, 1463, 2172, 1892,  643
 8018, 1127, 1337, 1167, 1128
 8019, 2173,  817, 1923,  778
 8020, 2097, 1757, 1768, 2209
 8021, 1596, 2451, 2450, 1922
 8022, 2097, 2206, 2219, 2401
 8023, 1950, 1209,  659,  620
 8024, 2451, 1168,  191, 1167
 8025, 1922, 1128, 1168, 1167
 8026, 2206, 2219, 2401, 2099
 8027, 2439,  192, 1169,  193
 8028, 1893, 1169, 1129, 1130
 8029, 1957, 2206, 2159, 2219
 8030, 1526, 1921, 1051, 1090
 8031, 2252, 1687,  537, 1688
 8032, 2439, 1169, 1170,  193
 8033, 2219, 1632, 2170,  579
 8034, 1893, 1169, 1168, 1129
 8035, 2091, 1169, 1130, 1170
 8036, 1322, 1612, 1609, 1606
 8037, 1719, 1720, 1723, 1316
 8038, 1425, 1171, 1170, 1131
 8039, 2331, 1170, 1171,  194
 8040, 2440, 1720,  717,  718
 8041, 1721, 1611, 1069, 1068
 8042, 1719, 1718, 1721, 1720
 8043, 2086, 2449, 2085, 2083
 8044, 2332, 1172,  195, 1171
 8045, 1719, 1316, 1718, 1720
 8046, 2440, 2178, 1147, 1718
 8047, 2040, 1135, 2086, 2045
 8048, 2083, 1133, 1134, 1173
 8049, 2449, 1172, 1173,  196
 8050, 2083, 1133, 1173, 1172
 8051, 2440, 2178, 1718, 1720
 8052, 2440, 1315, 1718, 1146
 8053,  774, 1897, 1681, 1898
 8054, 1330, 1336, 1335, 1333
 8055, 2036,  783,  744,  784
 8056, 2448, 1173, 1174,  197
 8057, 2036, 2085, 2086, 2448
 8058, 1330, 1333, 1165, 1336
 8059, 2297, 1174, 1175,  198
 8060, 1599,  777,  816,  776
 8061, 1681, 1333, 1335, 1336
 8062, 2040, 1174, 1135, 1175
 8063, 1328, 1684, 1872, 1686
 8064, 2304, 1137, 1176, 1136
 8065, 1706, 2474,  826,  827
 8066, 2432, 2438, 2433,  747
 8067, 1330, 1334, 1336, 1165
 8068, 2438, 1176, 1177,  200
 8069, 1338, 1335,  736,  775
 8070, 2304, 1176, 1175, 1136
 8071, 2305, 1137, 1138, 1177
 8072, 1332, 1685, 1684, 1686
 8073, 2437,  749,  200,  201
 8074, 2306, 1178, 1138, 1139
 8075, 1166, 1334, 1330, 1165
 8076, 1874, 1684, 1872, 1328
 8077, 2437, 1177, 1178,  201
 8078, 1686, 1125, 2259, 1124
 8079, 1333, 1336, 1164, 1165
 8080, 2353, 1178, 2352,   26
 8081, 1221, 1225, 2134, 1774
 8082, 1913, 2354,  725,  724
 8083, 1867, 1191, 1195, 1194
 8084, 1597, 1890, 1923,  778
 8085,  644,  645,  605, 1465
 8086, 1909, 1880, 1887,  213
 8087, 1913, 2463,  764,  725
 8088, 1908, 1155, 2012, 1154
 8089, 1228,  764, 1913, 2463
 8090, 2052, 1887, 1846, 1847
 8091, 2012, 2463,  725,  726
 8092, 2444, 2463, 1773, 1774
 8093, 2234,  215, 1181,  214
 8094, 1846,  984,  985, 1024
 8095, 1776, 2351, 2336, 1673
 8096, 2447,  554,  120,  593
 8097, 2336, 1674, 1673, 1675
 8098, 1910, 1179, 1183, 1182
 8099, 1729,  212, 1847, 1023
 8100, 2336, 1675,  231, 2348
 8101, 1676, 1675, 1674, 2348
 8102, 1669, 1674, 1675, 1673
 8103, 1518, 1545, 1524, 1979
 8104, 1669, 1676, 1675, 1674
 8105, 1880, 1847, 1887,  213
 8106, 1384, 1987, 1868, 1869
 8107, 2234,    7,  119,  215
 8108, 1970, 1184, 1181,  118
 8109, 1880, 2460,  205, 1179
 8110, 1829, 1910, 1947, 2460
 8111, 1699,  699,  660,  700
 8112, 1910, 1182, 2460, 1179
 8113, 1863, 1829, 1387, 1389
 8114, 2460,  945,  205,  206
 8115, 1868, 1375, 1528, 1985
 8116, 1252, 1390, 1792, 1248
 8117, 1540, 1319, 1533, 1320
 8118, 1879, 1829,  945, 2460
 8119, 2459, 2199,  117,  437
 8120, 1879, 1909, 1829, 2460
 8121, 1880,  205,  945,  984
 8122, 1863, 1909, 2234, 1387
 8123, 2459,  437,  117,  118
 8124, 1970, 1180, 1181, 1184
 8125, 1871, 1792,  986,  947
 8126, 1880, 1179,  205,   10
 8127, 2199,  398,  437,  397
 8128, 1386, 1972, 2211, 1971
 8129, 2447, 2234,    7,  554
 8130, 1879, 1880, 1847, 1887
 8131, 1863, 1879, 1909, 1829
 8132, 2199,  398,  116,  117
 8133, 2036, 2086, 2040, 2448
 8134, 1947, 1186, 1182, 1183
 8135, 2449, 2084, 2085, 2083
 8136, 2431, 2397, 2200,  354
 8137, 2360,  355,  356,  359
 8138, 2047,  782, 2084, 2085
 8139, 1948,  828, 1949,  867
 8140, 2039, 2040, 2297, 2036
 8141, 2086, 2449, 2083, 1173
 8142, 2361, 1188, 1185, 1189
 8143, 2360,  359,  358,  355
 8144, 2212, 2363, 2360, 2032
 8145, 2219, 2159,  540,  539
 8146, 1948,  207,  208,  867
 8147, 2435,   74,   75,  358
 8148, 2332, 1171,  195,  194
 8149, 2362, 2361, 1186, 1189
 8150, 2416, 1189, 1190,   76
 8151, 2416, 1189,   76,   75
 8152, 2362, 1186, 1187, 1190
 8153, 2362, 1186, 1190, 1189
 8154, 2417,  398,   77,  116
 8155, 2362, 2214, 2212, 2360
 8156, 1984, 1385, 2065, 2327
 8157, 2449,  743, 2332,  195
 8158, 2047, 2084, 2087, 2042
 8159, 2447, 2327,  554,  593
 8160, 2447, 1191,    7,  215
 8161, 2085, 2083, 2042, 2086
 8162, 1301, 1647,  411, 1303
 8163, 1203, 1207, 1205, 1204
 8164, 1302, 1303,  411,  450
 8165, 1308, 1303, 1569, 1307
 8166, 1887, 1193,  214,  213
 8167, 1544,  712,  752,  751
 8168, 2105,  211, 1729, 1062
 8169, 1308, 1393, 1392, 1394
 8170, 1825,  202,    8,  123
 8171, 2218, 1302,  450, 1303
 8172, 1978, 1199, 1195, 1196
 8173, 1319, 1141,  164, 1140
 8174, 1565, 1543, 1566, 1398
 8175, 1395, 2218, 1569, 1303
 8176, 2105, 1199, 1196,  210
 8177, 2176,  534, 2146, 2289
 8178, 2176,  573, 2145,  534
 8179, 2052, 1195, 1192, 1196
 8180, 2274, 1706,  788,  827
 8181, 2059, 2176, 2146, 2289
 8182, 1834,  533, 1801,  532
 8183, 2251, 2245, 2349, 1712
 8184, 1812, 2469, 2257, 2466
 8185, 1759, 1812, 1218, 2257
 8186, 2096,   34,  216,  219
 8187, 1810, 1901, 1900, 1752
 8188, 1589,  517,  516,  477
 8189, 1810, 1759, 1900, 1899
 8190, 1750, 2469, 2475, 1218
 8191, 1839,   31,  983,  944
 8192, 1812, 2469,  732,  731
 8193, 2066,  303,  307,  306
 8194, 1654,  976, 2229,  975
 8195, 1505, 1550, 1511, 2107
 8196, 1605,  333,  337,  336
 8197, 1543, 1653, 1654,  936
 8198, 2329,  938, 2350,  899
 8199, 1236,  348,  352,  351
 8200, 2254,  977, 2272,  976
 8201, 2331, 2439,  193,  741
 8202, 2008, 2208, 2350, 1780
 8203, 1542, 1566, 1568, 1651
 8204, 1493, 2072, 1495, 2256
 8205, 2109,  446, 1650,  485
 8206, 1240, 1237, 2102, 1239
 8207, 1669, 1240, 1676, 1238
 8208, 1672, 2103, 1295, 1820
 8209, 1880,  205, 2460,  945
 8210, 1295,  236,  232,  233
 8211, 1951, 1844, 1208, 1959
 8212, 1375, 2327,  593,  592
 8213, 1676, 1674, 1061, 2348
 8214, 2345, 1239, 1675,  228
 8215, 2336,  231, 1675, 1673
 8216, 1810, 1899, 2258, 1759
 8217, 1947, 1186, 1185, 1182
 8218, 1947, 2361, 1185, 1186
 8219, 2052, 2105, 1729, 1728
 8220, 2177, 1901,  612, 1811
 8221, 2052, 1192, 1193, 1196
 8222, 2279,  245, 2330,   11
 8223, 1752, 1753, 2141, 1758
 8224, 2279, 2330, 1289,  216
 8225, 2279,  866,   35,   34
 8226, 2308, 2474,  827,  162
 8227, 1972,  437,  476,  436
 8228, 1757, 1078, 2209, 1039
 8229, 2274,   23, 2308,  827
 8230, 1699, 1213,  661,  660
 8231, 2130, 2261,  720, 1932
 8232, 2471, 2235,  721,  722
 8233, 1914,  698,  658,  659
 8234, 2356, 2355, 1152,  175
 8235, 2308,    3,   22,  162
 8236, 2308,  242,    3,   23
 8237, 1844, 1035, 1212, 1034
 8238, 1697,  762, 2357,  801
 8239, 2355, 2368,  722,  723
 8240, 1037,  997, 1036, 1953
 8241, 1231,  617, 1223,  616
 8242, 2444, 1155,  179,  178
 8243, 1908, 2012, 2444, 2463
 8244, 1222, 1228, 2114, 1224
 8245, 1763, 1770, 1877, 1767
 8246, 1908, 2444, 1155, 1774
 8247, 1908, 2444, 1774, 2463
 8248, 1226, 1228, 1913, 2463
 8249, 1878, 2260, 2135, 1118
 8250, 2159,  540,  539,  500
 8251, 2135, 2260, 2445, 1157
 8252, 1593,  466,  506,  505
 8253, 1795,  950,  949,  910
 8254, 2115, 2445,  728,  727
 8255, 1719, 1607, 1611, 1610
 8256, 1316, 1317,  716,  755
 8257, 2440, 1316, 1315,  717
 8258, 1315, 1145, 1724, 1146
 8259, 1782, 1316, 1317, 1724
 8260, 1719, 1718, 1316, 1724
 8261, 2440, 1720, 1316,  717
 8262, 2100, 2191, 2202, 1551
 8263, 1732,  962,  923,  963
 8264, 1291,  218,  221,  217
 8265, 2191, 1536, 2239, 1501
 8266, 2456, 2182,  797,  796
 8267, 2130,  720,  759,  719
 8268, 2218, 2224,  489, 2230
 8269, 2420, 2128, 1703, 2183
 8270, 2072, 2256,  562,  563
 8271, 1337, 1166, 1127, 1167
 8272, 1525, 1974, 1546, 2044
 8273, 1891, 1127, 1088, 1128
 8274, 1685, 1897, 1681, 1335
 8275, 2224, 2204,  527, 1552
 8276, 2190, 2202, 2215, 2201
 8277, 1929, 1110, 1071, 1111
 8278, 1634, 1209, 1950,  620
 8279, 2153, 1946, 2158, 2174
 8280, 1805, 1877, 1764, 2247
 8281, 1104, 1065, 1881, 1730
 8282, 1317, 1326,  715, 1790
 8283, 1317, 1790,  715,  754
 8284, 1782, 1785, 1317, 1316
 8285, 1611, 1607, 1719, 1348
 8286, 1288,  400,  399,  360
 8287, 2227,  247,  246,  243
 8288, 2328,  243,   13,  244
 8289, 2330, 2328,   12,  244
 8290, 1291,  221,  220,  217
 8291, 2366,  364,  112,  111
 8292, 1506, 1522, 1975, 1517
 8293, 1590, 1591, 1838, 2095
 8294, 1288, 1286, 2233, 1287
 8295, 2227, 2328,  244,  243
 8296, 2093, 2337, 2338, 2142
 8297, 1996, 1991, 1278, 1583
 8298, 2299,  114,  362,  361
 8299, 2337,  245,   35,   36
 8300, 2330, 1289,  217, 2328
 8301, 2143, 2299, 1292,  246
 8302, 2128,  662, 2129,  663
 8303, 2132,  797, 2182,  758
 8304, 2456, 2457,  703, 1943
 8305, 2420, 2456,  132,  702
 8306, 1352,  625, 1916,  586
 8307, 2132,  758,  798,  797
 8308, 2456,  796,  132,  131
 8309, 2457,  796, 1944, 2182
 8310, 1348, 1352, 1920, 1916
 8311, 1930, 1069, 1070, 1109
 8312, 1529, 1539, 1528, 2180
 8313, 1535, 2458, 1701,  790
 8314, 2231, 1534, 1886, 1889
 8315, 1914, 1950,  659,  658
 8316, 1544, 1533, 1534, 2232
 8317, 2231, 2232, 1534, 1142
 8318, 2231,  165, 1142,  166
 8319, 2322, 2231,  166,  714
 8320, 1530, 2426, 2390, 2090
 8321,  644, 1468,  605,  604
 8322, 1596,  737, 2450,  738
 8323, 1338, 1337, 1596,  737
 8324, 1598,  644,  684,  683
 8325, 1338,  775,  736,  776
 8326, 1633, 1950, 2170,  619
 8327, 1406, 1457, 1642, 1963
 8328, 1964,  293,  292,  289
 8329, 1402, 2455,  929, 2069
 8330, 1261, 2104,  886, 1264
 8331, 2287,  375,  376,  415
 8332, 1400,  930,  890,  891
 8333, 1965, 1963,  292,  291
 8334, 2268,  431,  432,  471
 8335, 2269,  470,  471,  510
 8336, 1232, 2343, 1862, 1830
 8337, 2074,  341,  337,  338
 8338, 2075,  339, 2414, 2076
 8339, 2079,  391,  392,  431
 8340, 1350, 1030, 1029,  990
 8341, 1966, 2120,  548,  509
 8342, 1248, 2181, 1255, 1253
 8343, 1418, 1417, 1579, 2241
 8344, 1422,  428,  429,  468
 8345, 1926,  695, 2393, 2114
 8346, 1791, 1793, 1234, 1318
 8347, 1745, 1027, 1026,  987
 8348, 2356, 1153,  176, 1152
 8349, 2196, 1151, 1111, 1112
 8350, 1928, 2126, 2133, 1927
 8351, 1929, 1819, 1845, 1072
 8352, 1210, 1929, 1845, 1072
 8353, 1914,  658,  698,  697
 8354, 1283,  400, 1276,  401
 8355, 2095, 1583,  943, 1586
 8356, 2054,  478,  479,  518
 8357, 2474,  162,  826,  827
 8358, 2474,  161,  672,  673
 8359, 2474,  826,  162,  161
 8360, 2166, 1296, 2103,  634
 8361, 1299, 2275,  240,  241
 8362, 2274,  788,   24,   23
 8363, 2273, 2344, 2103,  633
 8364, 1210, 1204, 1113, 1074
 8365, 1951, 1953, 1952, 1036
 8366, 1960, 2357,  762,  763
 8367, 1203, 1212, 1208, 1207
 8368, 1790, 1886,  714,  753
 8369, 1315, 1317, 1724, 1326
 8370, 2322, 1144,  167, 1143
 8371, 1251, 1738, 1325, 1327
 8372, 1889, 1726, 1885, 1790
 8373, 2322, 1886, 2231,  714
 8374, 1326,  167,  716,  715
 8375, 2410,  344, 2418,   68
 8376, 1989, 2410,  833,  832
 8377, 1717,  347, 2270, 2410
 8378, 1989, 2410,  832, 2016
 8379, 2074, 2082, 2423, 2404
 8380, 2122,  432,  392,  393
 8381, 2080, 2075, 2122, 2079
 8382, 1989, 2341,  872, 2267
 8383, 2163,  432,  433,  472
 8384, 1976,  924,  884,  885
 8385, 1732,  924,  963,  923
 8386, 1693,  497,  458,  498
 8387, 1754, 2252, 1789, 1688
 8388, 1694,  499,  498,  459
 8389, 1628,  884,  844,  845
 8390, 2189, 1553,  528,  567
 8391, 1393, 2216, 1392, 1394
 8392, 1496, 1501, 1551, 1499
 8393, 1526, 1921, 2239, 1051
 8394, 2158, 1087, 2262, 1048
 8395, 1332, 2152, 1859, 1894
 8396, 1495,  524,  525,  564
 8397, 1495, 2072,  524,  563
 8398, 1551, 1013,  973,  974
 8399, 1303,  450,  410,  411
 8400, 1593,  467,  506,  466
 8401, 1474, 1564, 1475, 1710
 8402, 2018, 1557, 1742, 1558
 8403, 1741, 1966, 2269, 2120
 8404, 1556, 1032, 1031,  992
 8405, 1762,  583,  584,  623
 8406, 2000, 2220,  957,  958
 8407, 1366, 1267,  463,  464
 8408, 1592,  465,  466,  505
 8409, 1580,  956,  916,  917
 8410, 1573, 2000, 2220,  957
 8411, 1560, 1593, 1480,  506
 8412, 1366,  424,  425,  464
 8413, 1637,  385,  424,  384
 8414, 2446,   90,  386,  385
 8415, 2017, 1995, 2406,  323
 8416, 1259, 1592, 2198,  465
 8417, 1420, 1479, 1613, 1475
 8418, 2015, 2325, 2403, 1576
 8419, 2446,   90,  321,   89
 8420, 1781,  860,  861,  900
 8421, 2335, 2298, 2373,  260
 8422, 2207,  366,  405,  365
 8423, 2298,  862,   40,   39
 8424, 2298,   40,  257,   39
 8425, 1343,  364,  404,  403
 8426, 2382,  940,  939,  900
 8427, 2373,   40,  861,   41
 8428, 1818, 1817, 2151, 2311
 8429, 2421,   65,  836,   66
 8430, 1562, 2150, 1560, 1817
 8431, 1422, 1477,  468,  429
 8432, 2318,   64,  332,  329
 8433, 1841, 1035,  995,  996
 8434, 1818, 1562, 1817, 2150
 8435, 2246, 2163,  471, 2268
 8436, 1373, 1268,  502,  501
 8437, 1582,  877,  878,  917
 8438, 2286,  113,  363,  362
 8439, 2294,  863,  864,  903
 8440, 1342,  256,  255,  252
 8441, 1276, 2144,  401,  362
 8442, 2366,  112, 2286,  252
 8443, 2286,  112,  363,  113
 8444, 1274, 2143,  250,  249
 8445, 1383, 1349, 2026, 1390
 8446, 1791, 1797, 1795, 1739
 8447, 2026, 1379,  513,  512
 8448, 1325, 1029, 1028,  989
 8449, 1797,  909, 2010,  910
 8450, 1310,  393,  433,  432
 8451, 2422, 2016,   70,  350
 8452, 2343,  830,  831,  870
 8453, 1794,  948, 1797, 1796
 8454,  869,  829, 1830, 2343
 8455, 1862, 2010,  909,  870
 8456, 2343,  830, 2422,  831
 8457, 2121, 2010, 1715,  871
 8458, 1739, 1743,  989,  950
 8459, 1252, 1739, 1738, 1745
 8460, 1285, 1741, 2120, 1351
 8461, 1348, 1607, 1722, 2193
 8462, 1966, 2024,  509,  508
 8463, 1353, 1324,  587,  588
 8464, 1741, 2164, 2020, 2019
 8465, 1413, 1423, 1424, 1422
 8466, 2404, 2267,  834,  873
 8467, 1558, 1350, 1030, 1347
 8468, 2341, 2267,  873,  872
 8469, 1741, 2019, 1743, 2162
 8470, 2019, 2162,  912,  951
 8471, 1284, 1327, 1350, 1347
 8472, 1311, 1411, 1313, 1312
 8473, 2082, 2271, 2267, 2404
 8474, 2041, 2045, 2083, 1549
 8475, 1548, 1096, 1095, 1056
 8476, 1522,  519,  520,  559
 8477, 1524, 1508, 1058, 1057
 8478, 1979, 1524, 1097, 1096
 8479, 2266, 1094, 1095, 1134
 8480, 2419,  522,  523,  562
 8481, 2255,  561,  562,  601
 8482, 1709, 1893, 1129, 1130
 8483, 1510, 1018,  978,  979
 8484,  495, 2289,  535,  496
 8485, 2146,  494, 2225,  495
 8486, 2391, 1006, 1005,  966
 8487, 2291,  536,  496,  497
 8488, 1630, 1663, 1662, 1693
 8489, 2176, 2289, 2291,  535
 8490, 1712, 1042, 1043, 1082
 8491, 2251, 2291, 2176, 2289
 8492, 2324, 1005, 1044, 1004
 8493, 2283, 1680,  773,  772
 8494, 1690,  499, 2221, 2099
 8495, 2375, 1039,  999, 1000
 8496, 1081, 1219, 1121, 1751
 8497, 2098, 1000, 1001, 1040
 8498, 1953, 2209, 1038, 2375
 8499,  998,  997, 1037, 1953
 8500, 1219, 1120, 1080, 1081
 8501, 2205, 1227, 1956, 1954
 8502, 1954, 1225, 1952, 1076
 8503, 2121, 2010,  871,  910
 8504, 2181, 2026,  552,  551
 8505, 1253,  511, 1831,  512
 8506, 2121, 1795,  910,  911
 8507, 1739,  988, 1738, 1745
 8508, 2081, 1411, 2267, 2341
 8509, 1285, 1739, 1743, 1325
 8510, 1739,  989, 1738,  988
 8511, 1250, 1612, 1606, 1254
 8512, 1794, 1796, 1792,  948
 8513, 2440, 2441, 1147, 2178
 8514, 1255,  589, 1260,  550
 8515, 1928, 1149, 2261, 1932
 8516, 2107, 1510, 1507, 1017
 8517, 1992, 2293,  254,  251
 8518, 1848,  407, 1651,  446
 8519, 1779,   41,  860,   42
 8520, 1519, 1982, 1522, 1983
 8521, 2034, 1896,  262, 2004
 8522, 2365, 1341,  258,  255
 8523, 1780,  859,  899,  898
 8524, 2035,  406, 2033, 1853
 8525, 1340, 2382, 1344, 1998
 8526, 1779,  860,  859,   42
 8527, 1779, 2373,   41,  263
 8528, 1781,  860, 2373,  861
 8529, 1700, 1980, 1201, 1198
 8530, 1404, 1321,  204,  711
 8531, 1319, 1321, 1404,  711
 8532, 1321,  204,  203, 1201
 8533, 1826, 1321,  203, 1201
 8534, 1319, 1980, 1403, 1404
 8535, 1403, 1199,  210,  209
 8536, 2064, 1980, 1198, 1978
 8537, 1518, 1981, 1525, 2044
 8538, 1870,  981,  982, 1021
 8539, 1513, 2119, 1514, 1615
 8540, 2336, 1673,  234,  231
 8541, 1967, 1966, 1354,  547
 8542, 1957, 2209, 1953, 2375
 8543, 1222, 1767, 1223, 1769
 8544, 1953, 1371, 1483,  999
 8545, 1953,  999, 2375, 1038
 8546, 2098, 2375, 1000, 1039
 8547, 2030, 1641, 1647, 2276
 8548, 2224, 1553,  527,  528
 8549, 1552, 1465, 1468,  566
 8550, 1933, 2158, 1874, 2262
 8551, 1500, 1499, 1502, 1501
 8552, 2215, 2156, 1049, 2158
 8553, 2156, 1048, 2158, 2262
 8554, 2342,  970, 1446, 1443
 8555, 1446,  971, 2201, 1010
 8556, 1301, 1306, 1309, 1647
 8557, 1331,  370, 1369,  105
 8558, 1329, 1873, 1127, 1126
 8559, 1350, 1325, 1743,  990
 8560, 1710, 2313,  994,  955
 8561, 1564, 1563, 1556,  993
 8562, 1967, 1560,  546, 1968
 8563, 1555, 1967, 1968, 1560
 8564, 1840,  994, 2313,  995
 8565, 1564, 1710, 1563,  993
 8566, 1761, 1840, 1842, 1819
 8567, 2384,  641, 1431,  680
 8568, 2331, 1433, 1425, 1427
 8569, 1500, 2191, 1501, 1536
 8570, 2230, 2224, 2189, 2155
 8571, 1427,  740,  780,  779
 8572, 2331, 2439, 1425, 1170
 8573, 1432, 1428, 1433, 1427
 8574, 2087, 2385, 2315, 2384
 8575, 1357, 2015,  321,  322
 8576, 1579, 2240, 1417, 1578
 8577, 1592, 1256,  466,  465
 8578, 1578,  427,  387,  388
 8579, 2325,  386, 1576,  425
 8580, 2158, 2174, 1946, 1088
 8581, 2190, 2155, 2203, 2215
 8582, 1837, 2061, 1828, 1007
 8583, 1828, 1443, 1008,  969
 8584, 1448,  491,  492,  531
 8585, 1400, 2092, 2068,  890
 8586, 2352, 1139,   27,   26
 8587, 2351,  237, 2352,   27
 8588, 2352,   26, 1178, 1139
 8589, 1704, 1777, 1299, 2306
 8590, 2306, 1178, 1177, 1138
 8591, 2353, 1178, 2306, 2352
 8592, 2306, 1177, 2305, 1138
 8593, 2246, 1740, 2120,  510
 8594, 1249, 1610, 1727, 1067
 8595, 1350, 1325,  990, 1029
 8596, 1723, 1783, 1612, 1610
 8597, 1607, 1352, 1608, 2193
 8598, 1675,  232, 1673,  231
 8599, 1240, 1821, 2148, 2054
 8600, 2049,  597,  598,  637
 8601, 2320,   96,  380,  379
 8602, 2066, 2303,  381,   94
 8603, 2320,  300, 2124,  303
 8604, 2320,  380,   96,   95
 8605, 1660,  456,  457, 1661
 8606,  536,  497, 2291, 1688
 8607, 1658,  925, 1732, 1266
 8608, 1627, 2238,  460,  421
 8609, 1510, 1507, 1017, 1018
 8610, 2106, 1511, 2107, 2272
 8611, 2109, 1650, 1497,  485
 8612, 1974,  521, 1668,  522
 8613, 1981,  520, 1517,  521
 8614, 1498, 1494, 2229, 2272
 8615, 2062, 2061, 2391,  967
 8616, 2245, 2291, 1789, 2250
 8617, 1832, 1085, 1045, 1046
 8618, 1945,  965,  925,  926
 8619, 2323, 1945, 1659, 2222
 8620, 1409, 1410, 2060, 2063
 8621, 1837, 2391, 2061, 1006
 8622, 1835, 2225, 2147, 2146
 8623, 1802, 1832, 1085, 1905
 8624, 1455, 2060, 1659, 2222
 8625, 2146,  495, 2289,  534
 8626, 1834, 2145, 1801,  533
 8627, 2021,  469, 1477,  430
 8628, 2177,  574, 1787,  613
 8629, 1450, 1822,  492,  453
 8630, 2061, 1007, 1006,  967
 8631, 2385, 2467,  155,  679
 8632, 2467,  819,  155,  154
 8633, 2383,  154, 2467,  680
 8634, 2385, 2315, 2384,  679
 8635, 2301, 1433,  781,  780
 8636, 2087, 2301,  781,  820
 8637, 1432, 2087, 2301, 1433
 8638, 2107, 2253, 1016, 1055
 8639, 2087, 2047,  821,  782
 8640, 2136, 1136, 2040, 1135
 8641, 2053,  479, 2149,  480
 8642, 1513, 1514, 2119, 2117
 8643, 1747, 2226,  892,  853
 8644, 1420, 1475, 1474, 1479
 8645, 1640, 1643, 1645, 2277
 8646, 1645,  374, 1642,  413
 8647, 1449, 1803, 1836, 1934
 8648, 1921, 1469, 1946, 1089
 8649, 1501, 1499, 1052, 1013
 8650, 2215, 1921, 2174, 1050
 8651, 1405, 1963, 1643, 2028
 8652, 2138, 1044, 2058, 1045
 8653, 1817, 2150,  545,  544
 8654, 1817, 2150,  544, 2311
 8655, 1969, 1916,  585,  586
 8656, 1928, 2196, 1150, 1111
 8657, 1890,  778, 2302,  779
 8658, 1427,  741, 1433,  780
 8659, 1893, 1169, 2465, 1168
 8660, 2302,  740,  779,  739
 8661, 1747,  852,  853,  892
 8662, 2027, 2386, 2387,  284
 8663, 1735, 2028, 2387,  287
 8664, 2387,   49,  287,  284
 8665, 2386,  853, 2387,   48
 8666, 2387,  853,   49,   48
 8667, 1639, 1647, 1309, 2030
 8668, 1921, 1946, 2174, 1089
 8669, 2450, 1337, 1922, 1167
 8670, 2450, 2451, 1167, 1922
 8671, 2154, 1808, 1859,  608
 8672, 1467,  606,  607,  646
 8673, 1464,  683, 2429, 1595
 8674, 2429, 1594,  816, 1599
 8675, 1526, 1921, 1469, 1470
 8676, 2333,   99,  377,  376
 8677, 2333,  377,   99,   98
 8678, 2013,   98, 2333,  294
 8679, 1965,  294,  291,  295
 8680, 1407, 1457, 1458,  415
 8681, 1962,  293, 1381,  296
 8682, 2013, 2317, 2089, 1460
 8683, 1405, 2068, 1746, 1400
 8684, 1240, 1672, 1821, 1670
 8685, 1589,  517,  477,  478
 8686, 1584, 1237, 1239, 1590
 8687, 1990, 2292, 2293, 2294
 8688, 2056, 1975, 2053, 2149
 8689, 2298, 1998,  861,  862
 8690, 1620, 1621,  444,  443
 8691, 2292,  254,   38,   39
 8692, 2340, 1589, 2307,  477
 8693, 1304,  230, 2148,  516
 8694, 2124,  300, 2089,  301
 8695, 1460,  417,  377,  378
 8696, 1613,  914, 2022,  875
 8697, 2317,   97,  379,  378
 8698, 1665, 1664,  418,  379
 8699, 1660, 1665, 1664,  418
 8700, 1460,  377,  417,  416
 8701, 1337, 1891, 1128, 1127
 8702, 2172, 2383, 2300, 1431
 8703, 1596, 2450, 1337, 1922
 8704, 1399, 1406, 1457, 1407
 8705, 1221, 2205, 1230, 1231
 8706, 1953, 1954, 1952, 1037
 8707, 1223,  656, 2114,  655
 8708, 1231, 1223, 1767,  616
 8709, 1229, 1224,  656,  657
 8710, 2112,  767,  768,  807
 8711, 1805, 1806, 1807, 2364
 8712, 1770, 2115, 1771, 1878
 8713, 1691, 1736, 1630, 1693
 8714, 1219, 1766, 1081, 1080
 8715, 1757, 2098, 1040, 1039
 8716, 1229, 2278,  657,  618
 8717, 2170,  658,  618,  619
 8718, 1231,  578, 1230,  617
 8719, 2115,  767, 2116,  766
 8720, 1756, 1080, 1765, 1079
 8721, 1788, 1876,  615,  576
 8722, 2273,   21, 2344,  633
 8723, 1296, 2474,  672,  673
 8724, 2273,  672,   22,   21
 8725, 2273,   22,  242,  239
 8726, 2274,  827, 2308, 2474
 8727, 1777, 1707, 2305, 2306
 8728, 2430, 2472,  825, 2473
 8729, 1472, 1536, 1552, 1468
 8730, 2107, 1510, 1017, 1511
 8731, 2055, 1514, 2117, 1019
 8732, 1509, 1618, 1510, 1511
 8733, 1543,  975, 2229, 1503
 8734, 2254, 2350,  938,  937
 8735, 2070, 2229, 1015, 1014
 8736, 1503, 1014, 1013,  974
 8737, 2077, 2404, 2078, 2022
 8738, 1505, 1668, 1509, 1550
 8739, 2381,  483, 2108,  484
 8740, 2072,  523, 2110,  524
 8741, 1653,  897,  898,  937
 8742, 1920,  664, 2127,  663
 8743, 1352, 1324,  626,  587
 8744, 1608, 2193,  626,  665
 8745, 1608,  627, 1609,  666
 8746, 1966,  548, 1354,  547
 8747, 1966, 2269, 2120,  509
 8748, 1509, 1618, 1616, 1510
 8749, 1502, 1092, 1091, 1052
 8750, 2256,  602, 1737, 1431
 8751, 1974,  522, 2419,  561
 8752, 1505, 1974, 1517, 1668
 8753, 2106, 2071, 2419, 2072
 8754, 2271,  913, 2019,  912
 8755, 1738, 1028, 1249, 1027
 8756, 1249, 1067, 1727, 1066
 8757, 2171, 1986, 2192, 1064
 8758, 1246, 1726, 1725, 2372
 8759, 1606, 1255, 1254,  589
 8760, 1606,  627, 1324,  588
 8761, 1423, 1419, 1424, 1604
 8762, 1730, 1889, 1105, 1784
 8763, 1482, 1371,  959,  960
 8764, 1690,  498, 1694,  499
 8765, 1482,  921, 1484,  922
 8766, 1485, 2236, 1483,  961
 8767, 1485, 2236,  961,  962
 8768, 1357, 2446, 2265,  318
 8769, 2265,   91,  385,  384
 8770, 2446,  385, 2265,   90
 8771, 2265,  385,   91,   90
 8772, 1637, 2325,  424,  385
 8773, 1367,  423, 1637,  424
 8774, 2347, 1993, 2264, 2396
 8775, 2191, 2228, 2204, 1552
 8776, 2071, 2072, 2256, 2255
 8777, 2229, 1014, 1503,  975
 8778, 2070, 1053, 1499, 1014
 8779, 2205, 1230, 2219, 2170
 8780, 1229, 1223,  617,  656
 8781, 1424,  430, 2021, 1477
 8782, 1227, 1956, 1954, 1225
 8783, 1688,  537, 1789,  536
 8784, 1492, 1498, 2229, 1503
 8785, 2218,  489, 2224,  488
 8786, 1472, 2239, 2190, 2191
 8787, 2204, 1552,  526,  527
 8788, 2228, 2204,  526,  487
 8789, 1512, 1345, 1614, 1617
 8790, 1855, 2374, 2031, 2402
 8791, 1569,  409,  410,  449
 8792, 1871, 1024,  985, 1025
 8793, 1528,  670,  630,  631
 8794, 1885, 1528, 1529, 1530
 8795, 1700, 1201, 1197, 1198
 8796, 1907, 1153, 1113, 1114
 8797, 1911, 1204, 1075, 1114
 8798, 1697, 1206, 2368, 1215
 8799, 1224, 2278,  696,  657
 8800, 1907, 2355, 1204, 1152
 8801, 1363, 1484,  921,  882
 8802, 1573, 2314,  956,  957
 8803, 1489, 1358, 1367, 2264
 8804, 1627, 1486, 1694,  460
 8805, 2394,  383,   93,   92
 8806, 1356, 1995, 1357,  319
 8807, 2002, 1574, 1359, 2000
 8808, 1365, 2406, 2399,  841
 8809, 1657,   59,  843,  842
 8810, 1491, 1490, 2238, 2264
 8811, 2413,  388,  387,   88
 8812, 1974, 1981,  560, 2044
 8813, 2054,  479, 2053,  518
 8814, 1291, 1289, 2328,  217
 8815, 1519, 1670, 1238, 1982
 8816, 1618, 1510, 1511,  978
 8817, 1344, 2382, 1781, 1998
 8818, 2109,  484, 2381, 2108
 8819, 2381, 2106, 2108, 1668
 8820, 1525, 1550, 1507, 1548
 8821, 1505, 1512, 1510, 1509
 8822, 1507, 1508, 1057, 1018
 8823, 1515, 1975, 1516, 1517
 8824, 1975, 1516, 1517,  481
 8825, 1514, 1510, 1616,  979
 8826, 1994,  316, 1993,  313
 8827, 1359, 1361,  880,  879
 8828, 1355, 1365, 1361, 1995
 8829, 2219, 2401,  539,  578
 8830, 2023, 1613, 1479,  914
 8831, 1860, 2154, 2152, 1467
 8832, 1817, 2311,  544, 2151
 8833, 1564,  993, 1556,  992
 8834, 1564,  992, 2018,  953
 8835, 1761, 2151, 1818, 1817
 8836, 1723, 1607, 1612, 1609
 8837, 1782, 2378, 1725, 2377
 8838, 1612, 1606, 1725, 1609
 8839, 2457, 2182, 1944, 1943
 8840, 1721, 1718, 1107, 1108
 8841, 1284, 1347, 1323, 1327
 8842, 1944,  756, 1720,  757
 8843, 1559, 1556, 1032, 1031
 8844, 1563, 1819, 1032, 1033
 8845, 1557, 1555, 1556, 1564
 8846, 1928, 1919, 1931, 1930
 8847, 2136, 2304, 2040, 1136
 8848, 2432, 2438, 2305, 2433
 8849, 1523, 1677, 2055, 1238
 8850, 1527, 1098, 1973, 1097
 8851, 2304, 2433, 2432, 2305
 8852, 2305, 1137, 1177, 1176
 8853, 2432,  747,  198,  199
 8854, 1693,  498, 1694, 1689
 8855, 2097, 1875, 1768, 1757
 8856, 2251, 2245, 2290, 1659
 8857, 1627, 1693, 1662,  459
 8858, 2176,  535, 2250,  574
 8859, 1807, 1788, 1876,  615
 8860, 1768, 2209, 2111, 2134
 8861, 2236, 1483,  961, 1000
 8862, 1487, 1488, 1486, 1694
 8863, 1945, 1659, 1977, 2245
 8864, 1755, 1001, 2236, 1733
 8865, 1481, 1372, 1490, 1489
 8866, 1485,  922, 1629,  923
 8867, 1691, 1736, 1734, 1733
 8868, 1690,  499, 2099,  538
 8869, 1271, 1455, 1659, 2222
 8870, 1514, 1510,  979, 1018
 8871, 2107, 2253, 2272, 1016
 8872, 1511, 1016, 2272,  977
 8873, 1989, 1715, 2016,  832
 8874, 2016,  832, 1715,  831
 8875, 2422, 1716, 2016,  350
 8876, 1313, 1411, 1717, 1312
 8877, 2082, 2270,  343,  344
 8878, 1717, 2016, 1716,  350
 8879, 2134, 1117, 1774, 1116
 8880, 1424, 2079,  430,  391
 8881, 2209, 2375, 1039, 1038
 8882, 1224, 1223,  656, 2114
 8883, 1225, 2134, 1774, 1116
 8884, 1225, 1911, 1076, 1115
 8885, 1953, 1038, 1954, 1037
 8886, 1755, 1002, 1711, 1041
 8887, 2258, 2187, 1812,  771
 8888, 1904, 2137, 2168, 1809
 8889, 1832, 1085, 1905, 1084
 8890, 1835, 1834, 2063, 2225
 8891, 1902, 2145,  573,  572
 8892, 2021, 2024,  470, 2269
 8893, 1739,  949, 1795,  950
 8894, 1557, 1742, 1558, 1351
 8895, 1557, 1564, 1558, 2018
 8896, 1352, 1969, 1354,  586
 8897, 1352, 1354, 1353,  587
 8898, 1352, 1608, 2193,  626
 8899, 1352,  626, 2193,  625
 8900, 1782, 2284, 2378, 1785
 8901, 1943,  703, 2127,  664
 8902, 1348, 1352, 2193, 1920
 8903, 2457, 1943,  704,  703
 8904, 2284, 2457, 2468, 1944
 8905, 1718, 1610, 1107, 1724
 8906, 2440,  169, 1146,  170
 8907, 1761, 1817, 1214, 2151
 8908, 1928, 2130, 2126, 1930
 8909, 2126, 2179, 2131, 2182
 8910, 1815, 1559, 1819, 1929
 8911, 1929, 1819, 1072, 1071
 8912, 1210, 2196, 1111, 1112
 8913, 2261, 1932, 1149,  172
 8914, 1316,  717, 1720,  756
 8915, 2424, 2426,  707, 2090
 8916, 1528,  670, 1702,  669
 8917, 1731, 1246, 2180, 1883
 8918, 2390, 1790,  753, 1886
 8919, 1606, 1254,  628,  589
 8920, 2322, 1889, 1790, 1784
 8921, 2065,  214, 1887, 1192
 8922, 1606,  628, 1609,  627
 8923, 2424, 2390, 1786,  793
 8924, 1817,  584, 1762,  583
 8925, 1814, 1968,  585,  584
 8926, 1814, 1969, 1916,  585
 8927, 1563, 1559, 1032, 1819
 8928, 1916, 1920,  624,  625
 8929, 1559, 1929, 1071, 1819
 8930, 2183,  798, 2132,  759
 8931, 2179, 2127, 1722, 2182
 8932, 1761, 1819, 1842, 1845
 8933, 1954, 1225, 1077, 2134
 8934, 1225, 2134, 1116, 1077
 8935, 1228, 2463,  765,  764
 8936, 2463, 1228, 1773, 1226
 8937, 1703,  133,  700,  701
 8938, 1696, 2183,  760,  799
 8939, 1703,  798,  134,  133
 8940, 2183, 1703,  798,  799
 8941, 1703,  134,  798,  799
 8942, 2196, 2261, 1150, 2471
 8943, 1210, 1760, 1113, 1204
 8944, 1637, 2446, 1357, 2325
 8945, 1367, 1637, 1366,  424
 8946, 2446,   90, 2265,  318
 8947, 1714, 1573, 2313, 1580
 8948, 1259,  464, 1366,  425
 8949, 1367,  424, 1366,  463
 8950, 1357, 2446,  318,  321
 8951, 2196, 2471, 1150, 1151
 8952, 1257, 1714, 1580, 1573
 8953, 1608, 1324,  627,  626
 8954, 2261, 1149, 1150,  173
 8955, 1914, 1915, 2357, 1961
 8956, 1784, 1782, 1724, 1783
 8957, 1782, 1609, 1612, 1725
 8958, 2322, 1889, 1784, 1144
 8959, 1326,  168, 1144, 1145
 8960, 1317,  715, 1326,  716
 8961, 1246, 1249, 1727, 1883
 8962, 1320, 1321,  711,  750
 8963, 1317, 1790, 1782, 1784
 8964, 2303,   94,   93,  382
 8965, 2394,   93,  383,  382
 8966, 1627, 2066, 2067, 2237
 8967, 2346, 1994,  313,  314
 8968, 1491, 1656, 1629, 1484
 8969, 2326, 1993,  312,  313
 8970, 1580, 2313,  955,  956
 8971, 2019, 1743, 2162,  951
 8972, 1259, 1576,  426,  425
 8973,  425, 1366, 1258,  424
 8974, 1368, 2003, 1958, 2220
 8975, 1580, 1582,  917,  916
 8976, 2423, 2421,  835,   66
 8977, 1717, 2270,  347,  346
 8978, 2410, 2418, 2267,  833
 8979, 2418, 2267,  833,  834
 8980, 2081, 1412, 2164, 2163
 8981, 2270, 2410,  344, 2418
 8982, 1959, 2220, 1958,  997
 8983, 1214, 2151, 1817,  583
 8984, 2312,  503, 2198,  504
 8985, 1229, 1224,  657, 2278
 8986, 1570,  409,  369,  370
 8987, 2379,  856,   46,   45
 8988, 1331,  105,  371,  370
 8989, 2202, 1394,  973,  972
 8990, 2342, 1446,  970,  971
 8991, 1572, 1854, 1504, 1855
 8992, 2030,  279, 1306,  280
 8993, 1841, 2314,  995, 2313
 8994, 2001, 2309, 1378, 2198
 8995, 2312, 1635, 1374,  542
 8996, 1211, 1761, 1845, 1816
 8997, 1959,  996, 2220,  997
 8998, 2314, 2313,  956,  995
 8999, 1573, 2314, 2313,  956
 9000, 1761, 1816, 1762, 1814
 9001, 2309, 1592, 2311, 2198
 9002, 1956, 1208, 1207, 1205
 9003, 1573,  918, 2000,  957
 9004, 1912, 1950, 1914, 2278
 9005, 1951, 1844, 1035, 1207
 9006, 2156, 2203, 1447, 2155
 9007, 1467, 2175,  607,  606
 9008, 2153, 2189, 2154, 2175
 9009, 2230, 2224, 2155, 2203
 9010, 2218, 2230,  489, 2217
 9011, 1552,  527, 1553,  566
 9012, 1442, 1393, 1646, 1302
 9013, 2153, 1465, 2189, 2175
 9014, 1596, 1599,  776,  777
 9015, 2215, 2201, 1011, 1010
 9016, 2156, 2262, 1934, 1048
 9017, 2158, 1049, 2174, 1088
 9018, 1338, 1599, 1865,  776
 9019, 1305, 1504, 1306, 1307
 9020, 1448, 1451,  530, 2223
 9021, 2324, 2058, 1005, 2391
 9022, 1712, 2139, 1082, 1043
 9023, 2391, 2061, 1006,  967
 9024, 1837, 1832, 2138, 1045
 9025, 2147, 2324, 2391, 2058
 9026, 2324, 2139, 1043, 1044
 9027, 1662, 1666,  458, 1693
 9028, 2124, 1262, 1631,  301
 9029, 1456,  455,  416,  456
 9030, 1458, 1459,  416,  415
 9031, 1660, 1661, 1456,  456
 9032, 1455, 2062, 2060, 2222
 9033, 2438, 2305, 2306, 1177
 9034, 1937, 1520, 1521, 1938
 9035, 1294, 1295, 2103, 2344
 9036, 2437, 1707, 1705, 2306
 9037, 2432,  199, 2438,  747
 9038, 2304, 2305, 1176, 1137
 9039, 2437, 2438,  200,  748
 9040, 1704, 1706, 2411, 2473
 9041, 1298, 1706, 1705,  788
 9042, 1240, 1237, 1238, 2054
 9043, 1411, 2341, 1989, 2267
 9044, 2163,  471, 2268,  432
 9045, 2164, 2268, 2246, 2269
 9046, 2246, 1831,  511,  472
 9047, 1318, 2121, 1797, 2010
 9048, 1478, 1476, 2021, 2024
 9049, 1476, 2021, 2024,  469
 9050, 1412, 1795, 2121, 2162
 9051, 2279, 2337,   35,  866
 9052, 2279,   34, 2096,  866
 9053, 2279,   11, 2330,  216
 9054, 2279,   35,    1,   34
 9055, 2279,   35,   11,    1
 9056, 1692, 2206, 2401, 2099
 9057, 2388,  807, 2249, 2452
 9058, 1807,  614, 1788,  615
 9059, 1876,  616, 1767,  615
 9060, 1223, 1767,  616,  655
 9061, 2113, 2388, 2249, 2452
 9062, 1229, 1224, 1223,  656
 9063, 2111, 2134, 1117, 1774
 9064, 2403, 2325,  386, 1576
 9065, 2403, 2446,  386, 2325
 9066, 2446, 2325,  385,  386
 9067, 1357, 2015, 2446,  321
 9068, 2271,  874, 2022,  913
 9069, 1420, 1416, 1475, 1603
 9070, 1415, 1593,  467, 1480
 9071, 2150,  505, 1593,  506
 9072, 1378, 2312, 1374, 1267
 9073, 1592,  504, 2198,  465
 9074, 2150,  544, 2311,  505
 9075, 1578, 1576,  387,  426
 9076, 1488, 1627, 2238, 1486
 9077, 1623, 1488, 1491, 1629
 9078, 2002, 1364, 2003, 1359
 9079, 1356,  318, 2265,  315
 9080, 1623, 1630, 1488, 1976
 9081, 1373, 2159,  501,  540
 9082, 1462, 1471, 1463, 1464
 9083, 1338, 1600, 1596, 1337
 9084, 2215, 1049, 2156, 1010
 9085, 1598, 1865, 1600, 1599
 9086, 2189, 2230,  529,  528
 9087, 2189,  529, 2223,  568
 9088, 1472, 1468, 1552, 1465
 9089, 2153, 2155, 1472, 2174
 9090, 2190, 2215, 2202, 2239
 9091, 2322,  714, 1790, 1886
 9092, 2231, 1534, 1889, 1143
 9093, 1533, 1103, 1534, 1142
 9094, 2052, 1887, 1847, 1193
 9095, 1889, 1105, 1784, 1144
 9096, 2322,  715, 1790,  714
 9097, 1103, 1881, 1064, 1532
 9098, 1255, 1260, 1740,  550
 9099, 1552,  565, 1538,  526
 9100, 1652, 2109, 2108, 1622
 9101, 1921, 2239, 1051, 1050
 9102, 1542, 1651, 1568, 2101
 9103, 2203, 2224, 2218, 2230
 9104, 1493, 2071, 2256, 1436
 9105, 1541, 2109, 1651, 1650
 9106, 2072, 2256, 2255,  562
 9107, 1567, 1398, 2402, 1565
 9108, 2224,  527, 2204,  488
 9109, 2161, 2216, 2202, 2201
 9110, 2202, 2201,  972, 1011
 9111, 1370, 1953, 1958, 1371
 9112, 2221, 1486,  500,  499
 9113, 1268,  501, 1490,  462
 9114, 1368, 2002, 1372, 2003
 9115, 1629, 1656, 1628,  883
 9116, 1637, 1993, 2396, 2264
 9117, 1957, 1953, 1483, 2375
 9118, 2252,  537, 1687,  538
 9119, 2002, 1367, 1368, 1372
 9120, 2264,  462, 1490,  461
 9121, 2427, 1772, 1865,  814
 9122, 1860, 1466, 1600, 1946
 9123, 1810, 1812, 1759, 2258
 9124, 1946, 2174, 1089, 1088
 9125, 2259, 1683, 1124, 1163
 9126, 1802, 2262, 1047, 1934
 9127, 2189, 1553,  567, 1465
 9128, 2302,  740, 1427,  779
 9129, 1472, 1921, 1466, 2174
 9130, 1891, 1600, 1329, 1337
 9131, 2172,  682,  642,  643
 9132, 2173, 2172,  682,  681
 9133, 1428, 1431, 1432, 1429
 9134, 1536, 1472, 1921, 1462
 9135, 1860, 2154, 1467, 2175
 9136, 2256,  563, 1737,  602
 9137, 1756, 1713, 1080, 1041
 9138, 1756, 1765, 2111, 1079
 9139, 2139, 1758, 1082, 1083
 9140, 1833, 1903, 2138, 1832
 9141, 1563, 2313, 1840,  994
 9142, 1352, 1916, 1969,  586
 9143, 1419, 2412, 1604, 1423
 9144, 2309, 1714, 2311, 1592
 9145, 1818, 2311, 2309, 1714
 9146, 1415, 1422, 1480,  467
 9147, 1560, 1968,  545,  546
 9148, 1967, 1966,  547,  508
 9149, 1969, 1354,  586,  547
 9150, 1448, 1451,  491,  530
 9151, 1800, 1799, 1834, 1801
 9152, 1448, 1824, 1799,  531
 9153, 1900, 1904, 2137, 1899
 9154, 1442, 2203, 1447, 1446
 9155, 1809, 1808,  609, 1859
 9156, 1798, 1903, 1906, 1801
 9157, 1218, 1121, 1758, 1122
 9158, 1217, 1120, 1219, 1121
 9159, 2442,  729, 2248, 2376
 9160, 1712, 1751, 1082, 1758
 9161, 2137, 1906, 1902,  611
 9162, 1752, 2177, 1901, 1902
 9163, 2257, 1122, 1162, 1161
 9164, 1682, 1759, 2140, 2257
 9165, 2185,  810,  809,  770
 9166, 2252, 1688,  537, 1789
 9167, 2176, 2291, 2250,  535
 9168, 1487, 1483, 1485, 2236
 9169, 1692, 1687, 1690, 2099
 9170, 1689, 1693,  498,  497
 9171, 1472, 2190, 2155, 1553
 9172, 2158, 1872, 2262, 1087
 9173, 2215, 1050, 2174, 1049
 9174, 1448, 1827,  530,  531
 9175, 2258, 1683, 2466, 2257
 9176, 1332, 1335, 1685, 1333
 9177, 1451, 1445,  490, 2217
 9178, 1802, 1085, 1832, 1046
 9179, 1834, 1799,  532, 1801
 9180, 1448,  492, 1824,  531
 9181, 1837, 1828, 1836, 1007
 9182, 1834,  493, 1822, 2063
 9183, 2349, 2324, 2251, 1712
 9184, 1449, 1448, 1799, 1827
 9185, 1837, 2061, 1007, 1006
 9186, 2257, 1682, 1683, 2140
 9187, 2138, 1045, 1832, 1084
 9188, 1835, 2147, 2391, 2058
 9189, 2027, 1640,  283,  286
 9190, 1828, 1008, 1836, 1007
 9191, 1245, 1745, 1252, 1738
 9192, 2269, 2268,  471,  470
 9193, 2020, 1741, 2269, 2164
 9194, 1314,  472, 2163,  433
 9195, 2080,  431, 2268,  470
 9196, 2048,  677, 2358,  676
 9197, 2449,  744,  195,  196
 9198, 2083, 2266, 1134, 1133
 9199, 1475, 1580,  955,  916
 9200, 2309, 1714, 2314, 1841
 9201, 1475, 1710,  954,  955
 9202, 1564, 1475, 1710,  954
 9203, 2070, 2253, 1015, 2272
 9204, 2253, 1015, 2272, 1016
 9205, 2106, 2253, 1494, 2272
 9206, 2043, 2046,  638,  639
 9207, 1495, 2110, 1497,  524
 9208, 1618, 1510,  978, 1616
 9209, 2229, 2272, 1015,  976
 9210, 1315, 1146,  169, 1145
 9211, 1724, 1145, 1784, 1106
 9212, 1783, 1724, 1784, 1106
 9213, 1723, 1944, 1316, 1720
 9214, 2456, 2127, 1943,  703
 9215, 2128,  663, 2127,  702
 9216, 2153, 1873, 2158, 1946
 9217, 1921, 2174, 1050, 1089
 9218, 1472, 2174, 2215, 1921
 9219, 2281, 1054, 2070, 2253
 9220, 1470, 1890, 1426, 1892
 9221, 1472, 2190, 2239, 2215
 9222, 2246,  511, 1740,  510
 9223, 1741, 2164, 2246, 2269
 9224, 1739, 1795, 2162,  950
 9225, 2180, 1731, 1882, 1987
 9226, 1862, 2010, 1797,  909
 9227, 2039,  746, 2433,  785
 9228, 1704, 2411, 1936, 2473
 9229, 1941,  785,  786,  825
 9230, 1776, 1674, 1100, 1099
 9231, 1527, 1098, 1778, 1973
 9232, 2037,  824,  823,  784
 9233, 1982,  558, 1983,  557
 9234, 1791, 1744, 1795, 1412
 9235, 2410, 2016,   69,  832
 9236, 1717, 2410, 2016,  347
 9237, 2123, 2122, 2414, 2415
 9238, 1411, 2123,  346, 1312
 9239, 2270, 2410, 2418, 2267
 9240, 2410,  344,   68,   69
 9241, 2137, 1901,  611, 1902
 9242, 1834, 1824, 1822,  493
 9243, 1837, 2138, 2058, 1045
 9244, 2465,  191,  740,  739
 9245, 2439, 2465, 2091, 1169
 9246, 2302, 1893, 2091, 2465
 9247, 1893, 2465, 1922, 1168
 9248, 2465,  740,  191,  192
 9249, 2465, 1169,  192, 1168
 9250, 1471, 1597, 1596, 1922
 9251, 1522, 1975,  520,  519
 9252, 1982, 2053,  519,  518
 9253, 1518, 1520, 1522, 2044
 9254, 1525, 1524, 1545, 1548
 9255, 2043, 2044, 1546,  599
 9256, 1238, 1821, 2054, 2053
 9257, 1820, 2103,  594,  595
 9258, 2285,   44, 2374,  272
 9259, 1851, 2367, 1369,  369
 9260, 1572, 2009,  270, 1369
 9261, 1369,  106,  370,  369
 9262, 1504, 1331, 1369,  273
 9263, 1849, 2004, 1852, 1853
 9264, 2329, 2350, 1781,  899
 9265, 1396, 1392,  934, 1394
 9266, 2113, 2452, 2364,  692
 9267, 2116,  806, 2389,  805
 9268, 1770, 1878, 2260, 2115
 9269, 1222, 1228, 2116, 2114
 9270, 2445,  180, 2443,  728
 9271, 2444, 2445, 1773,  727
 9272, 1878, 1118, 2135, 1117
 9273, 2249,  808, 2452,  807
 9274, 2047,  822, 2371,  821
 9275, 1939,  637, 2048,  676
 9276, 2049, 2048, 1939,  637
 9277, 1546,  599, 2044,  560
 9278, 2087, 2084,  782,  781
 9279, 2281, 2253, 1055, 1054
 9280, 1708, 1493, 1430, 1502
 9281, 2071, 1550, 1547, 2280
 9282, 2280, 1056, 1548, 1095
 9283, 1668, 2106, 2108, 1509
 9284, 1438,  600, 1546, 2255
 9285, 2041, 2043, 2046, 2048
 9286, 2071, 2072, 2255, 2419
 9287, 2083, 2084, 2332, 2449
 9288, 1981,  560, 2044,  559
 9289, 1505, 1509, 1517, 1516
 9290, 2390, 1790,  754,  753
 9291, 1726, 1786, 2390, 1790
 9292, 2424, 2425, 1786, 2377
 9293, 2424, 2377, 1786, 2390
 9294, 2457, 2468, 1944,  795
 9295, 1725,  667, 1609,  628
 9296, 2424,  792,  128,  127
 9297, 1903, 1832, 2140, 2138
 9298, 1900, 2137, 1902, 1901
 9299, 1218, 1121, 1122, 1161
 9300, 1834, 2225,  494, 2063
 9301, 1906,  572, 1902,  611
 9302, 2150, 2311, 1592,  505
 9303, 1478, 1741, 2019, 1742
 9304, 1560,  545, 1817, 2150
 9305, 1967, 1560,  507,  546
 9306, 1761, 1845, 1842, 1216
 9307, 1299, 2353, 2275, 1705
 9308, 1214, 1213, 1634,  621
 9309, 1671, 1778, 1098, 1099
 9310, 1304, 1820, 2148, 2102
 9311, 2430, 2473, 1942, 2472
 9312, 1294,  236, 2344,  239
 9313, 2103,  633,  594,  634
 9314, 1776, 1673, 2336, 1674
 9315, 1519, 1670, 1982, 1983
 9316, 2049, 2048,  637,  638
 9317, 2042, 2043, 1438, 2046
 9318, 1527, 1677, 1778, 1098
 9319, 2280, 1095, 2266, 1094
 9320, 1505, 1668, 1550, 1974
 9321, 2044,  598, 1520,  559
 9322, 2055, 1058, 1508, 1019
 9323, 1438, 2043,  639, 2046
 9324, 1821, 2167, 1820,  556
 9325, 1522,  559, 1520,  558
 9326, 1798, 1900, 1905, 1904
 9327, 1802, 1905, 1085, 2157
 9328, 1837, 1046, 1832, 1045
 9329, 1837, 1006, 2058, 2391
 9330, 1746, 1747,  892,  891
 9331, 2324, 1712, 1043, 2139
 9332, 1711, 1713, 1041, 1042
 9333, 1712, 1042, 2349, 1043
 9334, 1945,  926, 2222,  965
 9335, 2323, 1004, 1945,  965
 9336, 1569,  449, 2160,  448
 9337, 2202, 1396,  973, 1394
 9338, 2202, 1551, 1012,  973
 9339, 2202, 1012, 2239, 1011
 9340, 2215, 1921, 1050, 2239
 9341, 1472, 2190, 1553, 1552
 9342, 2239, 1501, 1051, 1012
 9343, 2142,  247, 2094,  248
 9344, 2337, 2142,  248, 2338
 9345, 2279, 2094, 2330,  245
 9346, 2279, 2337, 2094,  245
 9347, 2143,  246, 2227,  247
 9348, 1291,  217, 2328,  218
 9349, 2279,   35, 2337,  245
 9350, 1821, 2054,  517, 2148
 9351, 1821,  517, 2054,  518
 9352, 1937, 1938, 2166, 2167
 9353, 2381, 2419,  522,  523
 9354, 1436, 1439, 2073, 2281
 9355, 1542, 1650, 1651, 2101
 9356, 1499, 1503, 1014, 1013
 9357, 1502, 1526, 1052, 1091
 9358, 1709, 1893, 1130, 2091
 9359, 1495, 1737,  563,  564
 9360, 1551, 1503, 1499, 1013
 9361, 1817, 2151,  544,  583
 9362, 2274,   24, 2275,  241
 9363, 2275,   24,   25,  240
 9364, 2353, 2275,   25,  240
 9365, 1299, 2353, 2352,  240
 9366, 2246, 2269, 2268,  471
 9367, 1252, 1253, 1379, 2026
 9368, 1791, 1793, 1390, 1379
 9369, 2010, 1715,  871,  870
 9370, 1793, 1234, 1318, 1232
 9371, 1947, 2211, 1183, 1910
 9372, 1861, 1793, 1241, 1388
 9373, 1232, 2343, 1715, 2010
 9374, 1311, 1318, 1412, 1314
 9375, 1862,  909, 1794,  908
 9376, 2243, 1582,  877,  878
 9377, 2243,  838,  878,  877
 9378, 2319,  839,  838,   63
 9379, 2409,   62, 2319,  326
 9380, 2319,   62,  839,   63
 9381, 1603, 1602,  877,  876
 9382, 1374, 1370, 1368, 1373
 9383,  996, 1841, 1035, 1959
 9384, 1841, 2314,  996,  995
 9385, 1842, 1033, 1819, 1840
 9386, 1212, 1207, 1204, 1074
 9387,  619,  580, 2170, 1633
 9388, 1563, 1840, 1819, 1033
 9389, 1214, 1762,  622,  583
 9390, 1951, 1953,  997, 1958
 9391, 1373, 1267,  502, 1268
 9392, 1452, 1455, 1408, 1456
 9393, 1459, 2287, 2333,  376
 9394, 2013,  378,   98,   97
 9395, 1270, 1262, 2089, 1263
 9396, 1399, 1410, 1457, 1408
 9397, 1399, 2455, 1402, 2069
 9398, 1458, 2063,  454,  455
 9399, 2312, 1635,  542,  543
 9400, 1283, 1276, 1277,  401
 9401, 2144, 2286,  363,  362
 9402, 1274, 2143,  249, 2299
 9403, 2143,  249, 2299,  246
 9404, 1668,  521, 1517,  482
 9405, 1738, 1027, 1745,  988
 9406, 1251, 1738, 1327, 1249
 9407, 1986, 2025, 2192, 1025
 9408, 1739, 1325,  989, 1743
 9409, 1252, 1379, 1390, 2026
 9410, 2181, 1254,  590, 1247
 9411, 1802, 1934, 1047, 1836
 9412, 2156, 1446, 1009, 1443
 9413, 1933, 2155, 2158, 2156
 9414, 2154, 1808,  608,  569
 9415, 2218, 2224, 2204,  488
 9416, 2202, 2215, 1011, 2239
 9417, 1555, 1554, 1969, 1967
 9418, 1564, 1558,  992, 1556
 9419, 1561, 1480, 1474, 1560
 9420, 1557, 1967, 1476, 1966
 9421, 1563, 1032, 1556,  993
 9422, 2136, 2304, 2039, 2040
 9423, 1706,  826, 2473,  787
 9424, 2039,  745, 2297,  746
 9425, 2273,  633, 1296,  672
 9426, 1704, 2166, 1936, 2411
 9427, 2273, 2274, 2308, 1296
 9428, 1821, 2054, 2053,  518
 9429, 1936, 2304, 1935, 2433
 9430, 2430, 2472,  160,  825
 9431, 2430, 1775, 1941,  824
 9432, 2038, 2371,  822, 2358
 9433, 1940, 2048, 2038, 2037
 9434, 1827,  570, 1808,  569
 9435, 1809, 1808,  570,  609
 9436, 1809,  571, 1906,  610
 9437, 1332, 1894, 1897, 1865
 9438, 1798, 1809, 1803, 1799
 9439, 1897,  813, 2470, 1898
 9440, 1335, 1336,  736,  735
 9441, 1865,  814,  775,  815
 9442, 1564, 1557, 1558, 1556
 9443, 1558, 1556, 1031,  992
 9444, 1558, 1556, 1559, 1031
 9445, 1742,  990, 1743,  951
 9446, 1814, 1817,  584, 1762
 9447, 1739, 1745, 1796,  988
 9448, 1558,  991, 2018,  992
 9449, 2049, 1938, 1521, 1520
 9450, 1519, 1522, 1520, 1983
 9451, 1938,  596, 2167, 1983
 9452, 1821, 1982, 1983,  557
 9453, 1670, 1983, 1821, 1982
 9454, 1238, 1523, 2056, 2055
 9455, 1522,  559, 1981, 2044
 9456, 2448, 2036,  745, 2297
 9457, 1585, 1586, 1676, 1870
 9458, 2149, 1695,  480,  441
 9459, 1282, 1583, 1584, 1585
 9460, 2202, 2216,  972, 2201
 9461, 2216,  972, 2201,  971
 9462, 1442, 1649, 2342, 1441
 9463, 2161, 2202, 2216, 1394
 9464, 1398, 2402,  896,  895
 9465, 1449, 1836, 1823, 1828
 9466, 2386, 2316, 1857,  854
 9467, 2216,  932, 1391,  933
 9468, 1402, 1828,  968,  969
 9469, 1245, 1248, 1255, 1253
 9470, 1322, 1324, 1607, 1323
 9471, 1251, 1740, 1744, 1253
 9472, 1725,  628, 1254,  629
 9473, 1327, 1610, 1067, 1068
 9474, 1797, 1739,  949, 1795
 9475, 1260,  549, 1740,  550
 9476, 2232,  164,  713,  712
 9477, 2232, 1141,  165,  164
 9478, 1544,  713, 1886,  752
 9479, 2232,  165, 1141, 1142
 9480, 1544, 1886, 1530,  752
 9481, 1987, 2180, 1539, 1882
 9482, 2096,   33,   34,  219
 9483, 2093, 2337,  865, 2338
 9484, 1591,  219, 1289,  220
 9485, 1838,  905,   33,   32
 9486, 2279,  216, 2096,   34
 9487, 2330,   12,  245,  244
 9488, 2093,  865, 2337,  866
 9489, 1281, 1291, 1289, 2227
 9490, 1583,  943, 1586,  982
 9491, 1282, 2095, 1583, 1991
 9492, 2340,  477,   17,   16
 9493, 1515, 1975, 1695, 1516
 9494, 1583,  942,  982,  981
 9495, 2095, 1991,  904,  943
 9496, 2119,  980, 1615,  941
 9497, 1636, 1996,  941,  902
 9498, 2149, 1587,  440,  479
 9499, 1279, 1277,  441, 2149
 9500, 2056, 1975, 1523, 2053
 9501, 1283, 1587,  439,  440
 9502, 2034, 2005, 2004,  262
 9503, 1273, 2294, 2380, 1991
 9504, 2292,  254,   39,  257
 9505, 1509, 1620, 1517, 1516
 9506, 1997, 1998,  862,  901
 9507, 1636, 1997,  902,  901
 9508, 1470, 1892, 1537, 1468
 9509, 1890, 1463, 1923, 2173
 9510, 1893, 1130, 2091, 1169
 9511, 1893, 2465, 1169, 2091
 9512, 2191, 1501, 2202, 1551
 9513, 1594, 1597, 1923,  777
 9514, 1597, 1922, 1893, 2465
 9515, 2300, 2302, 1427,  779
 9516, 1129, 1922, 1469, 1128
 9517, 1891, 1946, 1469, 1089
 9518, 1834, 2146,  494, 2225
 9519, 1828, 1443, 1667, 1449
 9520, 1451, 2223,  529,  530
 9521, 1827, 1799,  570,  531
 9522, 1464,  644, 1462, 1467
 9523, 1951, 1844, 1959, 1035
 9524, 2309, 1959, 1841, 2220
 9525, 1210, 1929, 1072, 1111
 9526, 1696, 2128,  661, 2165
 9527, 2177, 2176, 2250,  574
 9528, 1712, 1713, 1081, 1766
 9529, 2141, 2145, 1903, 2059
 9530, 2176, 2289,  535,  534
 9531, 1787, 2250,  575,  574
 9532, 2291,  536, 1688, 1789
 9533, 2177, 1902,  573,  612
 9534, 1620, 1668,  482,  483
 9535, 1620, 1622, 2108,  444
 9536, 1620, 1516,  482, 1517
 9537, 2033,  406,  366,  367
 9538, 1953, 1958, 1371,  998
 9539, 1258,  424, 2325,  425
 9540, 1374, 1267,  503,  502
 9541, 1953,  997, 1958,  998
 9542, 2177, 1901, 1902,  612
 9543, 1903, 2145, 1906, 1801
 9544, 2125, 2177, 2176, 2250
 9545, 2324, 2138, 2139, 1044
 9546, 2059, 2176, 2141, 2145
 9547, 2177, 2176,  574,  573
 9548, 1901, 1811, 1813,  651
 9549, 2295,  187, 1336,  735
 9550, 1336,  187, 1164,  188
 9551, 1334, 1336,  188,  736
 9552, 1874, 1803, 2262, 1802
 9553, 2464, 1683, 2259, 1163
 9554, 1681, 1336, 1335,  735
 9555, 2464, 1683, 1163, 1162
 9556, 2312, 1374,  503,  542
 9557, 1368, 1267, 1378, 1374
 9558, 1659, 1977, 2245, 1736
 9559, 1787,  575, 1788,  614
 9560, 2245, 2125, 1712, 2251
 9561, 2289, 2290,  496,  495
 9562, 2290, 2244, 1666, 1736
 9563, 2453, 2454,  809, 2185
 9564, 2442,  182, 2475,  730
 9565, 1900, 1903, 1902, 1906
 9566, 1758, 1751, 1121, 1218
 9567, 2475,  182, 1159,  183
 9568, 2469, 2475,  183,  731
 9569, 1877, 2248, 2249, 2376
 9570, 2408, 2413,  388, 1578
 9571, 1475, 1603, 1582,  916
 9572, 2240, 1417, 2413,  327
 9573, 2408,   86, 2412,  389
 9574, 1416, 1475, 1603, 1582
 9575, 2469, 2475, 1218, 1160
 9576, 2442, 1217, 2475, 1159
 9577, 1750, 2248, 1217, 2475
 9578, 2475, 1217, 1160, 1159
 9579, 2388, 2112, 2389, 1769
 9580, 1804, 1805, 1753, 1806
 9581, 1802, 1837, 1046, 1832
 9582, 2059, 2324, 2147, 2058
 9583, 1835, 1837, 2391, 2061
 9584, 1833, 1837, 1832, 2138
 9585, 2145,  572, 1801,  533
 9586, 2177, 1902, 2145,  573
 9587, 1824, 1799,  531,  532
 9588, 1709, 1469, 1129, 1893
 9589, 1526, 1921, 1090, 1469
 9590, 1536, 1537, 1552, 1468
 9591, 1921, 1536, 1470, 1526
 9592, 1465, 1468,  566,  605
 9593, 1552,  566, 1468,  565
 9594, 1537, 1538,  565,  564
 9595,  604, 1463,  644, 1468
 9596, 1463,  643, 1892,  604
 9597, 2154,  568, 2189, 2223
 9598, 2441,  171, 1147, 1148
 9599, 2441,  719,  170,  171
 9600, 2440,  170, 2441,  718
 9601, 2440, 1315, 1316, 1718
 9602, 2131, 2182,  757,  758
 9603, 1722, 1720, 2131, 2182
 9604, 1315, 1724, 1718, 1146
 9605, 1634, 1213, 1209,  621
 9606, 2219,  540, 1632,  579
 9607, 1951, 1959, 1958,  997
 9608, 1857,  893, 2226,  854
 9609, 2342, 1443, 1441,  970
 9610, 2342,  931, 1441, 1746
 9611, 2218, 2203, 1393, 2161
 9612, 1441, 1443,  969,  970
 9613, 1442, 1443, 2342, 1446
 9614, 2216, 2342,  932,  971
 9615, 1814,  623, 1762,  584
 9616, 2129, 2165,  623,  662
 9617, 1214,  582, 2151,  583
 9618, 1554, 1351, 1557, 1558
 9619, 2197, 1699, 1213, 2165
 9620, 1816, 1929, 1819, 1845
 9621, 1214,  583, 1817, 1762
 9622, 1205, 1207, 1956, 1911
 9623, 1816, 2165, 1814, 2129
 9624, 2271,  873, 2341, 2267
 9625, 2081, 2271, 2164, 2341
 9626, 2271,  912, 2341,  873
 9627, 2020, 2271, 2023, 2019
 9628, 1908, 2444, 2012, 1155
 9629, 2463, 1773,  765,  726
 9630, 1913, 1925,  763,  764
 9631, 1907, 2354, 2356, 1153
 9632, 1907, 1911, 1115, 1114
 9633, 1926, 1228,  764, 1925
 9634, 2012,  177, 1154,  178
 9635, 2444, 2012,  178,  726
 9636, 1908, 1225, 1116, 1115
 9637, 1908, 1116, 1774, 1155
 9638, 1470, 1709, 1893, 1469
 9639, 1552, 1537,  565, 1468
 9640, 1537, 1468, 1892,  604
 9641, 1502, 1709, 1526, 1091
 9642, 1434, 1439, 1425, 1428
 9643, 1537,  603, 1737,  564
 9644, 2167, 1983,  596,  557
 9645, 1671, 1776, 1099, 1674
 9646, 2055, 1524, 1508, 1058
 9647, 1527, 1059, 1677, 1098
 9648, 1523, 2055, 1524, 1508
 9649, 2003, 1364,  919, 1359
 9650, 1692, 1487, 2206, 2099
 9651, 2236, 1001, 2098, 1000
 9652, 2097, 1957, 2209, 2205
 9653, 1755, 1733, 1977, 1002
 9654, 1957, 2206, 2375, 1483
 9655, 2219,  579, 1230,  578
 9656, 2252, 2099, 2401,  538
 9657, 1372, 1268, 2221, 1490
 9658, 1443, 1667, 1449, 1440
 9659, 1407,  453,  414,  454
 9660, 1407, 1410, 1822,  454
 9661, 1644, 1444,  413,  452
 9662, 1962, 1381, 1454, 2051
 9663, 1402, 1746,  930, 1400
 9664, 1447, 1448, 1827, 2223
 9665, 2071, 1550, 2419, 1547
 9666, 1505, 1512, 1516, 1513
 9667, 1537, 1892, 1431,  603
 9668, 1436, 1435, 2281, 2266
 9669, 1430, 1502, 2073, 1439
 9670, 1813, 2186,  650,  689
 9671, 2137, 1901, 2186,  650
 9672, 1803, 1827, 1809, 1808
 9673, 2137, 1809,  610, 2168
 9674, 2137, 1906,  611,  610
 9675, 1903, 1902, 1906, 2145
 9676, 2140, 1832, 1905, 1084
 9677, 1906, 1902,  572, 2145
 9678, 1903, 2140, 1832, 1905
 9679, 1683, 2140, 1123, 2257
 9680, 2140, 2138, 1084, 1083
 9681, 1905, 1124, 1683, 1123
 9682, 2138, 2139, 1044, 1083
 9683, 1447, 1446, 2156, 1443
 9684, 1874, 2154, 1808, 1859
 9685, 2262, 1087, 1872, 1086
 9686, 1328, 1874, 1873, 1872
 9687, 1449, 1800, 1824, 1823
 9688, 1834,  532, 1824,  493
 9689, 1317, 1724, 1326, 1784
 9690, 1326, 1724, 1145, 1784
 9691, 1326, 1784, 1145, 1144
 9692, 1317, 1784, 1326, 1790
 9693, 2322, 1326, 1784, 1790
 9694, 2219, 1231, 2401,  578
 9695, 2245, 2291, 1688, 1789
 9696, 1231,  616, 1876,  577
 9697, 1689,  497, 2244, 1693
 9698, 1957, 2205, 2170, 1956
 9699, 1267, 2198,  503,  464
 9700, 1957, 2170, 1632, 1956
 9701, 1711, 2125, 1712, 2245
 9702, 2097, 2219, 1957, 2205
 9703, 1770, 2260, 1878, 1877
 9704, 1768, 1231, 1223, 1767
 9705, 1954, 1225, 1076, 1077
 9706, 1745, 1731, 1026, 1027
 9707, 1065, 1881, 1730, 1883
 9708, 1375, 1377,  671,  632
 9709, 1986, 2192, 1064, 1025
 9710, 1871,  986, 2025, 1025
 9711, 2192, 1731, 1065, 1026
 9712, 2420,  702, 2128, 2127
 9713, 2456, 2182, 2132,  797
 9714, 2182, 2126, 2132, 2131
 9715, 2126, 2129, 1920, 2127
 9716, 2420, 2127, 2456,  702
 9717, 2420, 2456, 2132,  797
 9718, 1814, 1968,  584, 1817
 9719, 1699, 1213,  660, 1209
 9720, 2420,  797,  133,  132
 9721, 1867, 1192, 2052, 1195
 9722, 1375, 1702, 1528,  670
 9723, 1252, 1796, 1739, 1745
 9724, 2372, 1254, 1247,  629
 9725, 1251, 1255, 1260, 1740
 9726, 1254, 1247,  629,  590
 9727, 2372, 1726, 2377, 1885
 9728, 1744, 2246, 1253, 1740
 9729, 2372, 1725,  629,  668
 9730, 1702,  669,  670,  709
 9731, 2216,  932, 1748, 1391
 9732, 1445, 1450,  452, 1644
 9733, 1442, 1302, 1445, 2217
 9734, 1368, 2002, 2003, 2000
 9735, 1445, 1444,  452,  451
 9736, 1401, 1400, 1405, 1746
 9737, 2190, 2161, 2224, 2204
 9738, 2041, 1437, 1547, 1549
 9739, 1677, 1519, 1523, 1527
 9740, 1527, 1097, 1524, 1058
 9741, 1519, 1527, 1677, 1778
 9742, 2055, 1514, 1019, 1508
 9743, 2107, 1056, 2280, 1055
 9744, 1545, 2044, 2049, 1520
 9745, 1522, 1975,  519, 2053
 9746, 1936, 1938, 2411, 2166
 9747, 1973, 1935, 2305, 1778
 9748, 2049,  597, 1938, 1520
 9749, 1523, 1522, 2053, 1975
 9750, 1438, 2043, 1546,  600
 9751, 1979, 1549, 1548, 1096
 9752, 1367, 2002, 1368, 1366
 9753, 1549, 1135, 1979, 2045
 9754, 1549, 1548, 1096, 1095
 9755, 1545, 1979, 1549, 1548
 9756, 2045, 2083, 1549, 1134
 9757, 1974, 1981, 1517,  521
 9758, 1505, 1506, 1515, 1517
 9759, 1636, 1997,  901, 1998
 9760, 2117, 1583, 1870,  981
 9761, 1343, 1345,  403,  404
 9762, 2382,  900, 1998,  901
 9763, 1273, 2294, 1996, 1997
 9764, 2329, 1781,  900,  899
 9765, 1510,  978, 1616,  979
 9766, 2294, 1997,  863,  902
 9767, 1512, 1620, 1345, 1621
 9768, 1505, 1514, 1508, 1507
 9769, 1975,  480, 1695,  481
 9770, 1514, 2119,  980, 1615
 9771, 1590, 1239,  226, 1237
 9772, 1239,  225,  229,  228
 9773, 2056, 1695, 1515, 1975
 9774, 2118, 1282, 1583, 1278
 9775, 2054, 1589, 1237, 1587
 9776, 2054, 1589,  478,  517
 9777, 1240, 2054, 2148, 1237
 9778, 1585, 1870, 1676, 2057
 9779, 1588, 2340, 2233, 1287
 9780, 1584, 1237, 1589, 1587
 9781, 1818, 2313, 1841, 1840
 9782, 1211, 1816, 1929, 1927
 9783, 2196, 2471, 2368, 2235
 9784, 2471, 2368, 2235,  722
 9785, 1760, 1204, 1152, 1113
 9786, 1760, 1204, 2355, 1152
 9787, 1960, 1760, 2355, 2368
 9788, 2001, 1366, 1259, 1267
 9789, 1814, 2129, 2165,  623
 9790, 1210, 1927, 1929, 2196
 9791, 1210, 1929, 1111, 2196
 9792, 1559, 1071, 1931, 1070
 9793, 1556, 1563, 1555, 1559
 9794, 1815, 1559, 1929, 1931
 9795, 1559, 1819, 1071, 1032
 9796, 1558, 1031, 1917, 1030
 9797, 1563, 1559, 1556, 1032
 9798, 1880,  984, 1847,   10
 9799,  946, 1871,  947, 1829
 9800, 2052, 1887, 1193, 1192
 9801, 1847, 1193,  213,  212
 9802, 1847,  213,   10,  212
 9803, 2234, 2065, 1385, 2327
 9804, 1531, 1375, 1702, 1528
 9805, 2281, 1435, 1094, 2266
 9806, 2003, 1359,  919, 2000
 9807, 1547, 2280, 1548, 1549
 9808, 2070, 1054, 2073, 1053
 9809, 2266, 1549, 1134, 1095
 9810, 2194, 2104,  847,  848
 9811, 2066, 1662,  380,  381
 9812, 2326, 2067,  309, 2303
 9813, 2066, 2067, 2303,  306
 9814, 1945, 1658,  925, 1977
 9815, 2066, 2237,  381, 2303
 9816, 1627,  459, 1662,  420
 9817, 1662, 1693,  458,  459
 9818, 1627, 2237, 2238,  421
 9819, 2237, 2303,  382,  381
 9820, 1656, 1626, 2346, 2263
 9821, 2260, 2443, 2445, 1157
 9822, 2442, 2443, 2247, 1158
 9823, 2443,  729, 2376,  728
 9824, 1763, 1804, 1807, 1877
 9825, 1749, 1805, 1219, 1217
 9826, 1712, 1766, 1081, 1751
 9827, 1607, 1352, 1324, 1608
 9828, 1782, 1609, 1725, 2378
 9829, 1782, 1783, 1726, 1612
 9830, 1944, 1316, 1720,  756
 9831, 1284, 1353, 1606, 1324
 9832, 2152, 1859,  647,  608
 9833, 2154,  608, 2152,  607
 9834, 1975, 1516,  481, 1695
 9835, 2055, 1870, 2057, 1020
 9836, 1975,  519, 2053,  480
 9837, 1282, 1283, 1277, 2149
 9838, 1584, 1590, 1588, 1237
 9839, 1505, 1510, 1514, 1507
 9840, 1283,  401, 1277,  440
 9841, 2285,  857, 2374,   44
 9842, 2374,  857,   45,   44
 9843, 1855, 2374, 2379,  275
 9844, 2310,  269, 2285, 2007
 9845, 2006,  857,  858,  897
 9846, 1572, 2031, 1854, 1855
 9847, 2155, 2223, 2189, 1451
 9848, 2070, 2229, 1014, 1503
 9849, 1131, 1439, 1091, 2088
 9850, 1651, 2101,  447, 1568
 9851, 1492, 2070, 1503, 2229
 9852, 2071, 2070, 2281, 2073
 9853, 1492, 1500, 1538, 2191
 9854, 2070, 2253, 1054, 1015
 9855, 1638, 1644, 1649, 1444
 9856, 1442, 1649, 1444, 1646
 9857, 1449, 1667, 1409, 1822
 9858, 1402, 2061, 2069,  968
 9859, 1449, 1828, 1934, 1836
 9860, 1646, 1391, 2216, 1748
 9861, 2342,  970, 1441,  931
 9862, 1807, 1787,  614, 1806
 9863, 1805, 1877, 2364, 1807
 9864, 1807,  615, 1876, 1767
 9865, 1807, 1767,  654,  615
 9866, 1807, 1767, 2113,  654
 9867, 2177,  613, 1811,  612
 9868, 1877, 2247, 2248, 2376
 9869, 1219, 1120, 2247, 1119
 9870, 1763, 1876, 1768, 1767
 9871, 1214, 1762, 1213,  622
 9872, 2165, 1762,  623,  622
 9873, 2420, 1703, 2128,  701
 9874, 2128, 1703,  700,  701
 9875, 1814, 1916, 1920,  624
 9876, 1918, 1917, 1070, 1069
 9877, 2197, 1210, 2196, 1927
 9878, 2300,  819, 2383,  818
 9879, 2046,  639, 2315,  678
 9880, 2300, 1426, 1890, 2172
 9881, 2385, 2315, 2371,  821
 9882, 2266, 1549, 1437, 2083
 9883, 1470, 1537, 1536, 1468
 9884, 1502, 1053, 2073, 1092
 9885, 1504, 1307, 1854, 1570
 9886, 1393, 2216, 1391, 1392
 9887, 1308, 1397, 1398, 1854
 9888, 2100, 2202, 1394, 1396
 9889, 1396, 1395, 1308, 1394
 9890, 1541, 2229, 1543, 1654
 9891, 1856,  278, 2316,  281
 9892, 2030, 2276, 1380,  279
 9893, 1896, 2365,  258, 2334
 9894, 1397, 1572, 1854, 1570
 9895, 1685, 1897, 1895, 1898
 9896, 2462,  147, 2470,  687
 9897, 2152, 1894,  647, 1859
 9898, 1330, 1329, 1600, 1337
 9899, 2283, 2186, 2462, 2169
 9900, 1749, 1811, 1753, 1806
 9901, 1808,  609, 1859,  608
 9902, 1897, 1335,  775,  774
 9903, 1894, 1895,  686,  647
 9904, 2470,  812,  148,  147
 9905, 1712, 2245, 2349, 1711
 9906, 1751, 1758, 1121, 1082
 9907, 1900, 1904, 1899, 1682
 9908, 2140, 1084, 2138, 1832
 9909, 1753, 1806, 2177, 1787
 9910, 1753, 2177, 1806, 1811
 9911, 1218, 1759, 2257, 1758
 9912, 1220, 1812, 1749, 1750
 9913, 2464,  185, 2466, 1162
 9914, 2071, 2107, 2106, 1550
 9915, 1132, 1425, 1439, 1131
 9916, 1470, 1890, 1471, 1893
 9917, 1435, 1094, 2266, 1133
 9918, 1439, 2281, 1435, 1093
 9919, 2003, 2000,  958, 2220
 9920, 1573, 1575, 1359,  918
 9921, 1439, 1425, 1132, 1434
 9922, 1794, 1829,  908,  947
 9923, 2003,  919, 1364,  920
 9924, 1862,  908, 1830,  869
 9925, 1241, 1349, 1386, 1388
 9926, 1386, 1972, 1888, 2211
 9927, 2422, 2016,  831,   70
 9928,  829, 2212, 1830, 2343
 9929, 1236,  349,  352,  348
 9930, 1900, 2140, 1903, 1905
 9931, 1332, 1338, 1600, 1865
 9932, 1678, 1683, 2259, 1680
 9933, 1933, 1803, 1808, 1827
 9934, 1798, 1809, 1801, 1906
 9935, 1835, 2146, 1834, 2225
 9936, 2137, 2168,  610,  649
 9937, 1593, 1480,  506,  467
 9938, 1560, 1480,  507,  506
 9939, 1416, 1413, 1420, 1415
 9940, 2413, 1578,  387,  388
 9941, 2243, 2319,  839,  838
 9942, 1415,  428, 1422,  467
 9943, 2392,  374, 2277,  101
 9944, 2277,  285,  101,  102
 9945, 2277,  102,  374,  373
 9946, 1667, 1407, 1450, 1644
 9947, 1643, 2287, 1963, 1642
 9948, 1301, 1308, 1392, 1305
 9949, 1647, 2276, 1641,  372
 9950, 2030, 2276,  279,  282
 9951, 1776, 1100, 2336, 2351
 9952, 1777, 1670, 1778, 1937
 9953, 1671, 1060, 1674, 1099
 9954, 2336, 1061,   29,   28
 9955, 2336,   28, 1100, 1061
 9956, 1677, 1676, 1060, 2057
 9957, 1637,  384, 2265,  385
 9958, 1637,  385, 2446, 2325
 9959, 1637, 1357, 2446, 2265
 9960, 2238, 1486,  460,  461
 9961, 1356, 2265, 1637, 1993
 9962, 1726, 2377, 1885, 2390
 9963, 1530, 2426,  791,  792
 9964, 1529, 1530, 1544, 1885
 9965, 1885, 1790, 2390, 1886
 9966, 2372, 1247,  630,  629
 9967, 2372,  630, 1528,  669
 9968, 2181,  590, 1255,  551
 9969, 1868, 2171, 1987, 1539
 9970, 2365,  365,  364,  111
 9971, 1896, 1341,  259,  258
 9972, 2207, 2034, 2033, 1896
 9973, 1340, 1614, 1617, 2382
 9974, 1616,  939, 2382,  940
 9975, 1618,  938, 2329,  939
 9976, 2444, 1156, 2445,  179
 9977, 2445, 1156,  180,  179
 9978, 2115,  728, 2376,  767
 9979, 2115, 2443, 2376,  728
 9980, 1228,  765, 1773,  766
 9981, 2445, 2443,  180, 1157
 9982, 1766, 2213, 1756, 1763
 9983, 1749, 1805, 2188, 2184
 9984, 2431,   78, 2200,  397
 9985,  515, 1387, 1385, 2234
 9986, 2398, 1888, 2200, 2199
 9987, 2199, 2362, 1187, 1190
 9988, 2200,  398,   78,   77
 9989, 2417,   77, 2200,  357
 9990, 2212, 2214, 2032, 2360
 9991, 1449, 1827, 1447, 1448
 9992, 1569,  410, 1303,  449
 9993, 2218,  449, 1303,  450
 9994, 1302, 1444,  451,  412
 9995, 1393, 2217, 2218, 1302
 9996, 1504,  277, 1306,  276
 9997, 1445, 2217,  451,  490
 9998, 2427, 1772,  149,  685
 9999, 1772,  813,  149,  148
10000, 2470,  148, 1772,  686
10001, 1894, 1895, 1897, 1772
10002, 1897, 1898,  774,  813
10003, 1462, 1467, 1600, 1464
10004, 2472,  826,  161,  825
10005, 2472,  673,  160,  161
10006, 2430,  160, 2472,  674
10007, 2473, 1941,  786,  825
10008, 2166,  635, 2411,  634
10009, 1298,  242, 2274,  241
10010, 2430, 1941,  825,  824
10011, 1557, 1474, 1476, 1967
10012, 1558, 1350, 1742,  991
10013, 1476, 2024,  508,  469
10014, 1811, 2184,  651,  652
10015, 1810, 1813, 1749, 2185
10016, 1753, 1751, 2141, 1758
10017, 1749, 1805, 2184, 1806
10018, 1901, 1813,  650,  651
10019, 1811, 1806,  652,  613
10020, 1220, 1751, 1753, 1758
10021, 2453, 2364, 2452,  691
10022, 1750,  731, 1812,  770
10023, 2113, 2364, 2452, 2249
10024, 1809, 1827,  570, 1808
10025, 1798, 1906, 1900, 1904
10026, 1900, 1682, 1899, 1759
10027, 1809, 1799, 1801,  571
10028, 2140, 2138, 1083, 2139
10029, 1802, 1872, 2157, 1086
10030, 2228, 1538,  525,  526
10031, 1536, 1526, 1921, 2239
10032, 1708, 1502, 1709, 1526
10033, 1495, 2072,  563, 2256
10034, 1502, 1052, 1499, 1053
10035, 1536, 1538, 1552, 1537
10036, 1307, 1570,  370,  409
10037, 2190, 2100, 2191, 2202
10038, 1504, 1331, 1307, 1570
10039, 2218,  488, 2160,  449
10040, 1309, 1646, 1748, 1391
10041, 1712, 2139, 1758, 1082
10042, 2291, 1789, 2250,  536
10043, 1875, 2252, 1788, 1789
10044, 1574, 1573, 1575, 1359
10045, 2213, 1875, 1788, 1789
10046, 1757, 2098, 1039, 2375
10047, 2236,  962, 1733, 1001
10048, 1732, 1733, 1485,  962
10049, 1757, 2209, 2375, 1039
10050, 1690, 1487, 1486, 1694
10051, 1754, 1734, 1688, 2245
10052, 1732, 1658, 1663, 1977
10053, 1828, 1934, 1836, 1008
10054, 1440, 1443, 1667, 1441
10055, 2069, 2061,  967,  968
10056, 1874, 1872, 1802, 2262
10057, 1828, 2061,  968, 1007
10058, 2155, 2158, 2215, 2174
10059, 2311, 1635,  543, 2151
10060, 1951, 1370, 1378, 1632
10061, 2003, 1958, 2220,  958
10062, 1481, 1489, 1482, 1372
10063, 2220,  958, 1958,  997
10064, 1370, 1373, 1374, 1632
10065, 2205, 1956, 1227, 2170
10066, 1843, 2312, 1635, 1374
10067, 1203, 1210, 1212, 1204
10068, 2306, 1139, 2352, 1178
10069, 2437, 2438,  748, 1707
10070, 2353, 2437, 2306, 1178
10071, 1705, 2275,  788,  749
10072, 1776, 1139, 2306, 1138
10073, 2466,  733,  732,  184
10074, 2466,  184, 1161,  185
10075, 2172,  681, 2383,  680
10076, 1431,  603, 1892,  642
10077, 1552, 1537, 1538,  565
10078, 2106, 2110, 2072, 2381
10079, 1430, 2256, 1431, 1429
10080, 1436, 1429, 1438, 2256
10081, 1428, 2088, 1426, 1439
10082, 1708, 1500, 1737, 1493
10083, 1430, 1502, 1439, 1709
10084, 1448, 1827,  531, 1799
10085, 1439, 2281, 1093, 2073
10086, 2384, 2467,  679,  680
10087, 2414,  393,   83,   82
10088, 2074, 1605, 2078,  337
10089, 2414,  393,  392,   83
10090, 1311, 2163,  432,  433
10091, 2080, 2268,  431,  432
10092, 1478, 1557, 1564, 1474
10093, 2075, 2123,  342,  343
10094, 2081, 2075, 2123, 2122
10095, 2233,   16,  224,  221
10096, 1588, 2233, 2340,  224
10097, 1588, 1286,  224,  223
10098, 2233,  438,   16,   15
10099, 1291, 1289,  217,  220
10100, 1293, 2143, 2227, 2142
10101, 1290, 1588, 1286, 1287
10102, 2233,  438,   15,  399
10103, 2057, 1238, 2055, 1677
10104, 1936, 2136, 2304, 2039
10105, 2038, 2047, 2046, 1940
10106, 2281, 2107, 1055, 2253
10107, 2071, 1547, 2419, 2255
10108, 1435, 1434, 1133, 2083
10109, 2281, 1094, 1435, 1093
10110, 1402,  929, 1400,  930
10111, 2228, 1538, 1495,  525
10112, 1419,  330,  334,  333
10113, 1605, 2076, 1604,  336
10114, 2412,   86,  390,  389
10115, 1581, 1423,  428,  389
10116, 1592, 1593,  505,  466
10117, 2412,  390,   86,   85
10118, 1604,   85, 2412,  333
10119, 1776, 1777, 1138, 2306
10120,  786, 2473, 2433, 1941
10121, 1706, 2472,  826, 2474
10122, 2430, 2473,  825, 1941
10123, 2472, 2411,  674,  673
10124, 1936, 1937, 2136, 1521
10125, 1706, 2474, 1296, 2411
10126, 1704, 1707, 2306, 1705
10127, 2059, 2176, 2145, 2146
10128, 1645, 2392,  374, 2277
10129, 2324, 2058, 2138, 1044
10130, 2141, 2177, 1902, 2145
10131, 1834, 2146,  533,  494
10132, 1835, 2147, 2060, 2391
10133, 2069, 1409, 2062, 2061
10134, 2176, 2146,  534, 2145
10135, 1586, 1239, 1585, 1676
10136, 2336, 1674, 2348, 1061
10137, 1238, 1585, 2054, 1237
10138, 1585, 1239, 1238, 1676
10139, 1669, 1240, 1673, 1675
10140, 1240, 1673, 1675,  232
10141, 1839, 1838,  222,   32
10142, 1584, 1290, 2095, 1282
10143, 1239, 1237,  229,  226
10144, 1676, 2345, 2348, 1022
10145, 1586, 1676, 2345, 1239
10146, 1238, 1239, 1240, 1676
10147, 1675, 2348,  228,  231
10148, 1676, 1675, 2345, 1239
10149, 1473, 1593, 1415, 1480
10150, 1422, 1423,  429,  428
10151, 1418, 2014, 2011, 1419
10152, 1601, 2404,  874, 2022
10153, 2423,   67,  835,  834
10154, 1419,  333, 2412,  330
10155, 1424, 1477,  429,  430
10156, 2074, 2082,  341, 2423
10157, 2271, 2404, 2022,  874
10158, 2082,  341, 2423, 2418
10159, 2442, 2376, 2247, 2443
10160, 1218, 1219, 1220, 1751
10161, 1217, 1121, 1219, 1218
10162, 2113, 1769,  654, 1767
10163, 1713, 2213, 1766, 2125
10164, 1712, 1081, 1713, 1042
10165, 1436, 1437, 2266, 1547
10166, 2256,  602, 1429,  601
10167, 1428, 1439, 1435, 1434
10168, 1438, 2256, 1429,  601
10169, 1438, 2255,  601,  600
10170, 1437, 2266, 1547, 1549
10171, 2049, 2044,  599,  598
10172, 2043, 1546,  600,  599
10173, 1940, 2041, 2086, 2047
10174, 1313, 1715, 2121, 2010
10175, 2021, 2020, 2024, 2269
10176, 1311,  433, 1314, 2163
10177, 1989,  871, 1715,  832
10178, 2246, 2163,  472,  471
10179, 2121,  872, 1989, 2341
10180, 1797, 2121, 1795,  910
10181, 1401, 1649, 1644, 1667
10182, 1318, 1797, 2121, 1795
10183, 2162, 1743,  950,  951
10184, 1861, 1242, 1232, 2214
10185, 2081, 2080, 2122, 2268
10186, 2121, 2341,  911,  872
10187, 1313, 1717, 1989, 1715
10188, 1290, 2095, 1293, 1289
10189, 1619, 1620, 1622, 2108
10190, 1273, 1340, 1990, 1997
10191, 2093, 2380,  904, 1991
10192, 1996, 1991,  942,  903
10193, 1313, 1716, 1717, 1715
10194, 2422,  831,   71,   70
10195, 2122, 1310,  432,  393
10196, 2404, 2077, 2074, 2271
10197, 1311, 1314, 1412, 2163
10198, 1717, 1312,  346,  349
10199, 1717, 2016,  350,  347
10200, 1716, 2032,  352,  353
10201, 2137, 2169, 2168,  649
10202, 2186,  688, 2169,  649
10203, 2461,  146, 2462,  688
10204, 2283,  812, 2462,  811
10205, 1679, 1899, 2283, 2169
10206, 2283,  811, 2187,  772
10207, 2283,  772, 2258, 1680
10208, 2462,  811,  147,  146
10209, 2462, 2470, 1898, 2169
10210, 1895,  687, 2470,  686
10211, 1979, 1524, 1096, 1548
10212, 1794, 1792, 1388, 1829
10213, 1385, 1349,  553, 1383
10214, 2030, 1640,  282,  283
10215, 2025, 1792,  987,  986
10216, 1253,  512, 2026,  551
10217, 1745,  987, 1796,  988
10218, 1862, 1830, 2343,  869
10219, 1823, 1828, 1837, 2061
10220, 1802, 1046, 1836, 1047
10221, 1802, 1837, 1836, 1046
10222, 1800, 1802, 1837, 1836
10223, 2403, 1576,  386,  387
10224, 2242,  326, 2409, 2319
10225, 2240,  324, 2413, 2403
10226, 2413, 1578, 1576,  387
10227, 2403,   89, 2446,  321
10228, 2240, 1576, 2015, 2403
10229, 2017, 2015,  325, 2242
10230, 1589, 1237, 1588,  227
10231, 1590,  223, 1588,  226
10232, 1590, 1591, 1588,  223
10233, 2330,  245,   12,   11
10234, 1286, 1291,  221,  220
10235, 1286,  221, 2233,  224
10236, 2340, 2233, 1287,  438
10237, 1589, 2148, 1237,  227
10238, 2071, 2281, 1436, 2073
10239, 2256, 1431, 1429,  602
10240, 1494, 1495, 2110, 1497
10241, 2072, 2110,  523, 2381
10242, 1429,  602, 1431,  641
10243, 1438, 1429,  640,  601
10244, 2106, 2108, 2109, 2381
10245, 1218, 1160, 2475, 1217
10246, 1220, 1750, 1217, 1218
10247, 2258, 1812, 2257, 2466
10248, 1899, 2283, 2186, 2187
10249, 2469,  732,  183,  184
10250,  771, 2187, 1812, 2185
10251, 1749, 2188, 2185, 2184
10252, 1220, 1759, 1218, 1758
10253, 1437, 1438, 2043, 1546
10254, 2358, 2048,  676, 1775
10255, 2049, 1520, 2044,  598
10256, 1974, 1546,  561, 2255
10257, 1438, 2043,  600,  639
10258, 1422, 1424,  429, 1423
10259, 1413, 1581,  428,  427
10260, 2074,  340, 2082, 2075
10261, 1396,  973, 1394,  934
10262, 1496, 2228, 1497, 1650
10263, 1407,  453, 1644,  414
10264, 2228, 1497, 1650,  486
10265, 2228,  486, 2101,  487
10266, 2228, 1552, 1538,  526
10267, 1723, 1722, 1608, 1943
10268, 1327, 1322, 1610, 1323
10269, 1353, 1346, 1352, 1323
10270, 1557, 1476, 2024, 1966
10271, 1611, 1107, 1610, 1068
10272, 1724, 1719, 1718, 1610
10273, 1530, 2390,  792,  753
10274, 2390, 1886, 1530, 1885
10275, 1885, 2090, 1530, 2390
10276, 2424,  707, 2426,  127
10277, 2105, 1729, 1728, 1062
10278, 1702, 1531, 1535, 1701
10279, 2064, 1531, 1980, 1540
10280, 2321,  305,   56,  308
10281, 2195,   55, 2321,  305
10282, 2321,   55,  846,   56
10283, 2194, 1263,  302, 2195
10284, 1362, 1993, 1358, 2264
10285, 2346, 2400, 2395, 1628
10286, 2104,  886, 1264,  847
10287, 2367, 2009, 1369,  270
10288, 1572, 2009, 1369, 1570
10289, 1504, 1331, 1570, 1369
10290, 1369, 1570,  369,  370
10291, 1928, 2126, 1927, 1919
10292, 1817, 1815, 1968, 1562
10293, 1638, 1644, 1444,  413
10294, 2133, 2129, 2128, 2165
10295, 2126, 2132, 2128, 2127
10296, 1814,  623, 2165, 1762
10297, 1571, 1851,  408,  407
10298, 1279,  441, 1277,  402
10299, 1852,  264,  268,  267
10300, 2370, 2367,  107,  267
10301, 2370,  108, 2369,  264
10302,  268, 1849, 2009, 2007
10303, 1851,  369, 1369, 1570
10304, 2171, 1986, 1064, 1063
10305, 1868, 1539, 1987, 1985
10306, 2181, 1985, 1247,  591
10307, 1532, 1103, 1533, 1102
10308, 1881, 1064, 1532, 1882
10309, 1245, 2181, 1254, 1255
10310, 1514, 1510, 1018, 1507
10311, 1730, 1784, 1726, 1889
10312, 1529, 1534, 1881, 1885
10313, 1539, 1528, 2180, 1985
10314, 1249, 1327, 1067, 1028
10315, 1999,  259, 1341,  256
10316, 1275, 1274, 2143, 2142
10317, 1274, 1342,  252,  253
10318, 2366, 1280,  363,  364
10319, 2365, 2366, 1280, 1341
10320, 1340, 1998, 1999, 1997
10321, 2144,  363, 1280,  402
10322, 1621, 1345,  404,  443
10323, 1273, 1997, 1990, 2294
10324, 1896,  262, 2004,  261
10325, 1319,  711, 1404,  163
10326, 1376,  120, 1191, 1194
10327, 1540, 1533, 1319, 1102
10328, 2105, 1196,  211,  210
10329, 1846, 1023, 1729, 1847
10330, 1980, 1202, 1321, 1201
10331, 1978, 1196, 2105, 1199
10332, 1900, 1682, 1759, 2140
10333, 2258,  733, 1680,  772
10334, 2466, 2257, 1162, 1161
10335, 2469, 1161, 1218, 2257
10336, 1812, 2469, 1218, 2257
10337, 1750, 1217, 1218, 2475
10338, 1220, 1750, 1218, 1812
10339, 1302, 1445, 2217,  451
10340, 1407, 1450, 1644,  453
10341, 1448,  491, 1450,  492
10342, 1399, 1408, 1453, 2455
10343, 2342, 1746, 1748,  931
10344, 1402, 1441, 1443,  969
10345, 1964, 2028, 1735,  290
10346, 1612, 1725, 1606, 1254
10347, 1782, 1724, 1723, 1316
10348, 1783, 1610, 1106, 1067
10349, 1608, 1606, 1609,  627
10350, 1284, 1250, 1606, 1260
10351, 1353, 1606, 1324,  588
10352, 1782, 1723, 1609, 2284
10353, 1726, 1786, 2377, 2390
10354, 2024, 2269,  509,  470
10355, 2120, 1740,  549,  510
10356, 2020, 2024, 2269, 1741
10357, 1285, 1260, 1353, 1740
10358, 1967, 1969, 1968,  546
10359, 2019, 1742,  951,  952
10360, 2021, 2024,  469,  470
10361, 1393, 1302, 2218, 1303
10362, 1569, 1307,  410,  409
10363, 2216, 1392,  933, 1391
10364, 1305, 1855, 1858, 1856
10365, 1392,  933, 1391,  894
10366, 2342, 1748,  932,  931
10367, 2190, 2100, 2204, 2191
10368, 2379, 1858, 2316,  855
10369, 2029, 2386, 2316, 1857
10370, 1306, 1305, 1856, 1504
10371, 1854, 1858, 1855, 2402
10372, 1855, 2379, 2402, 1858
10373, 2379, 2402, 1858,  856
10374, 2029, 2226, 2386, 1857
10375, 1856, 1306,  277,  280
10376, 1854, 1855, 2031, 2402
10377, 1308, 1395, 1569, 1303
10378, 1330, 1860, 1600, 1329
10379, 1809,  610, 2168,  609
10380, 2154, 2152,  608, 1859
10381, 1895, 2470, 2169, 1898
10382, 1809, 1803, 1684, 1798
10383, 2082, 2418,  834, 2267
10384, 2082, 2418,  344,  341
10385, 2421,  836,  835,   66
10386, 2423,  835,   67,   66
10387, 1424, 1604,  390, 1423
10388, 2271, 2404,  873, 2267
10389, 1409, 1402, 1828, 2061
10390, 1649, 2342, 1746, 1748
10391, 1401, 1402, 1746, 1441
10392, 1667, 1402, 1441, 1443
10393, 1446, 1443,  970, 1009
10394, 2460, 1179, 1182,  205
10395, 1829,  907,  946,  906
10396, 2460,  945,  206,  906
10397, 1947, 1910, 1182, 2460
10398, 2460,  206,  205, 1182
10399, 2459, 2199, 1187,  117
10400, 1514, 1505, 1512, 1510
10401, 1829, 1947,  906, 2460
10402, 1879, 1829,  946,  945
10403, 1476,  507, 1967, 1560
10404, 1353, 2120,  549,  548
10405, 1744, 2120, 2246, 1740
10406, 1353, 1260,  588,  549
10407, 1476, 1966,  508, 2024
10408, 1346, 1350, 1558, 1347
10409, 2120, 2269,  510,  509
10410, 2348, 1061, 1022,   29
10411, 1671, 1670, 1677, 1778
10412, 2348,   29, 1022,   30
10413, 2345, 2348,   30,  228
10414, 2345,  983,   31,   30
10415, 1676, 1674, 1060, 1061
10416, 1896,  259, 2335,  262
10417, 1848, 1853,  407,  406
10418, 1619, 1617, 2208, 1621
10419, 2207, 1621,  405, 1622
10420, 2035, 2034, 1622, 2008
10421, 1617, 2208, 1344, 2329
10422, 2365,  364, 1343, 1280
10423, 2366, 1342, 1341,  255
10424, 1344, 2335, 1999, 1998
10425, 2365,  365,  111,  110
10426, 2001, 1257, 1573, 1714
10427, 1657, 2399, 1994,  317
10428, 1573,  957, 2220, 2314
10429, 1575, 2405,  879,  878
10430, 2001, 1592, 2309, 2198
10431, 1575, 1582,  878,  917
10432, 1364,  880, 1365,  881
10433, 2242, 2405, 2319, 2409
10434, 1613, 1475, 1479,  915
10435, 1550, 1974, 1668, 2381
10436, 1279,  403, 1345,  442
10437, 2106, 1550, 2381, 2419
10438, 1341, 1344, 2335, 1999
10439, 2109, 1850,  446,  445
10440, 2329,  900, 1781, 2382
10441, 2207, 1621,  404,  405
10442, 2335, 2005, 1779, 1781
10443, 1652, 2109, 1622, 1850
10444, 2335, 2005,  262,  263
10445, 2005,  265, 2004,  262
10446, 1493, 1430, 1502, 2073
10447, 2070, 2229, 2272, 1015
10448, 1493, 1430, 1436, 2256
10449, 1708, 1537, 1431, 1737
10450, 1708, 1537, 1892, 1431
10451, 1438, 2256,  601, 2255
10452, 1514, 1507, 1018, 1508
10453, 2329, 2382,  939,  900
10454, 1653, 2006, 1780,  897
10455, 1780, 1781, 2350,  899
10456, 2109, 2110, 2381,  484
10457, 1781, 2382,  900, 1998
10458, 1512, 1617, 1616, 1618
10459, 2208, 2335, 1781, 2005
10460, 1512, 1509, 1619, 1618
10461, 2106, 1652, 1619, 2254
10462, 1617, 1616, 1618, 2382
10463, 1339, 1341, 1343, 1280
10464, 1339,  403, 1279, 1280
10465, 1621, 1622,  444,  405
10466, 1428, 1430, 1436, 1439
10467, 1439, 1435, 1434, 1132
10468, 1428, 1430, 1439, 1426
10469, 1436, 2256, 1430, 1429
10470, 1439, 1093, 1435, 1132
10471, 1493, 2256, 2071, 2072
10472, 2300,  779, 1890, 2302
10473, 1429, 1432, 1428, 1438
10474, 2384,  679, 2315,  640
10475, 1430, 1431, 2256, 1737
10476, 1442, 2342, 2216, 1446
10477, 1643,  286, 2028,  289
10478, 1748, 1391,  932,  893
10479, 2202, 2216, 1394,  972
10480, 1401, 1405, 1648, 1746
10481, 1956, 1912, 2170, 1205
10482, 2309, 2220, 1841, 2314
10483, 1207, 1075, 1911, 1204
10484, 1908, 1913, 2354, 2463
10485, 1238, 1523, 1982, 2053
10486, 2164, 2246, 2268, 2163
10487, 1412, 2164, 2162, 2341
10488, 1966,  509, 2024, 2269
10489, 2023,  953, 2018,  952
10490, 1791, 1318, 1795, 1797
10491, 2163, 1791, 1831, 1314
10492, 1243,  397,  436,  396
10493, 2416, 2435,   75,  358
10494, 2398, 2200,  354,  357
10495, 1861, 1386, 2210, 1388
10496, 2416,   76, 2417,  357
10497, 1255,  590, 1254,  589
10498, 1252, 1745, 1792, 1796
10499, 1249, 1327, 1251, 1250
10500, 1255, 1253,  551,  550
10501, 2181,  591, 1247,  590
10502, 1314, 1831,  472,  473
10503, 1314, 1234, 1379,  473
10504, 1314,  434, 1234,  473
10505, 1383, 1349,  553,  552
10506, 1888, 1241,  436,  475
10507, 1791, 1793, 1379, 1234
10508, 1575, 1582, 2243,  878
10509, 2399,  841, 2406,   60
10510, 2406,  841,   61,   60
10511, 2409, 2406,   61,  323
10512, 1577, 2015, 2240, 1576
10513, 2017, 2406, 1361, 2409
10514, 1356, 1993,  315, 2265
10515, 2074, 2077, 2404, 2078
10516, 2404, 2423, 2421,  835
10517, 2082, 2423,  834, 2418
10518, 1601, 2022,  874,  875
10519, 1418, 1601, 2011, 2014
10520, 2014,  335, 2078,  334
10521, 2271, 2404,  874,  873
10522, 1601, 2404, 2022, 2078
10523, 1861, 2210, 1386, 2211
10524, 1241,  474, 1349, 1379
10525, 1234,  474, 1379,  473
10526, 2431,   79,  354,   78
10527, 1386,  475, 1972,  476
10528, 1947, 2211, 1186, 1183
10529, 1542, 1396, 1543, 1551
10530, 2228, 2101, 2160,  487
10531, 2224, 1552,  527, 1553
10532, 1396,  974, 1551,  973
10533, 1398, 1858, 2402,  895
10534, 2101,  447, 1568,  448
10535, 1543, 1654, 2229,  975
10536, 2292,  254, 2293,   38
10537, 1996, 2294,  902, 1997
10538, 2293,   38,  251,   37
10539, 2293,   38,   37,  864
10540, 1274,  250, 1992,  253
10541, 2425,  794, 2468,  129
10542, 2425, 2378,  705, 2468
10543, 2468,  794,  130,  129
10544, 2457, 2468,  130,  704
10545, 1786, 1317,  755,  754
10546, 2284,  666, 2378,  705
10547, 1782, 1785, 1723, 2284
10548, 1785, 1316,  756,  755
10549, 2284, 2378, 1785, 2468
10550, 1689, 1691, 1690, 1694
10551, 1691, 1488, 1487, 1694
10552,  538, 1690,  498, 1687
10553, 1689, 1691, 1736, 1734
10554, 1630, 1627, 1694, 1693
10555, 1488, 1485, 1629, 1976
10556, 2442, 2443,  729, 2376
10557, 2247, 1120, 1217, 1159
10558, 1219, 2247, 1120, 1217
10559, 2260, 1158, 2443, 1157
10560, 1764, 1765, 1080, 1079
10561, 2260, 2443, 2247, 2376
10562, 2442, 1159,  182, 1158
10563, 2442, 2475, 2248,  730
10564, 1727, 1610, 1250, 1612
10565, 1352, 1353, 1324,  587
10566, 1353, 1606,  588, 1260
10567, 1611, 1347, 1917, 1069
10568, 1249, 1727, 1883, 1066
10569, 2269, 2120, 2246, 1741
10570, 2011, 1419,  334, 1605
10571, 1613, 1603,  915,  876
10572, 1601, 1613,  876, 1603
10573, 1613,  915, 1479,  914
10574, 1473, 2313, 1475, 1580
10575, 1601, 2407, 1602,  837
10576, 1605,  334, 2078,  337
10577, 2003,  959, 1371, 1958
10578, 2003,  959, 1958,  958
10579, 1368, 2220, 2001, 2000
10580, 1482, 1372, 2003, 1371
10581, 1365, 1355, 1364, 1363
10582, 1367, 1268,  462,  463
10583, 1367, 1268, 1490,  462
10584, 1373, 1632,  541, 1374
10585, 1373,  541, 1632,  540
10586, 1481, 1490, 1372, 2221
10587, 2150,  505, 1592, 1593
10588, 2380, 2294, 2293,  864
10589, 2293,  864, 2294,  863
10590, 2054, 2053,  479, 2149
10591, 2292,  863, 2294, 1997
10592, 1990, 2292, 2294, 1997
10593, 1999, 1342,  256, 1341
10594, 2380, 1273, 1275, 2142
10595, 1655, 1657, 2399, 1994
10596, 1361, 2406,  841,  840
10597, 1358, 1359, 1360, 1355
10598, 1655, 1657,  843,  842
10599, 1257, 1259, 1256, 1592
10600, 1272, 2144, 1274, 1342
10601, 1512, 1516, 1513, 1345
10602, 1283, 2149, 1587,  440
10603, 1821, 1982,  518, 2053
10604, 1279, 1280,  403,  402
10605, 2221, 1268,  501, 1490
10606, 2401,  538, 2099,  539
10607, 2181, 1255, 1253,  551
10608, 1738, 1327, 1028, 1325
10609, 1249, 1066, 1883, 1731
10610, 1987, 1246, 2180, 1731
10611, 1738, 1249, 1731, 1027
10612, 1585, 1583, 1586, 1870
10613, 1608, 1606,  627, 1324
10614, 1741, 2162, 2164, 2019
10615, 2066, 2303,   94,  306
10616, 2326, 2067, 2303, 2237
10617, 2326, 2394, 2303,  309
10618, 2238, 2347, 2237, 2326
10619, 2303,   94,  309,   93
10620, 1881, 1889, 1534, 1104
10621, 2181,  551, 1253, 2026
10622, 1868, 1866, 2171, 1539
10623, 1529, 1530, 1531, 1535
10624, 1720,  718, 2131,  757
10625, 1720,  757, 2131, 2182
10626, 1721, 2178, 1720, 1718
10627, 2109,  484, 2108,  445
10628, 1974, 2419, 2255,  561
10629, 2381,  522, 1668,  483
10630, 2072,  562, 2419,  523
10631, 1547, 1974, 2419, 2255
10632, 1493, 2073, 1502, 2070
10633, 2125, 1712, 2141, 1751
10634, 2177, 2176,  573, 2145
10635, 1804, 1787, 2125, 2213
10636, 1787,  614, 1806,  613
10637, 1763, 1807, 1788, 1876
10638, 1755, 2236, 1001, 2098
10639, 1807, 1806,  614,  653
10640, 2292, 1997,  862,  863
10641, 1273, 1996, 2294, 1991
10642, 2292,   38, 2293,  863
10643, 2298,  862, 1997, 1998
10644, 2298, 2292, 1997,  862
10645, 1340, 1999, 1344, 1341
10646, 1990, 2292, 1999,  257
10647, 1636,  941, 1996, 2119
10648, 1583, 1996, 1991,  942
10649, 2337,   35,  866,   36
10650, 2297,  197, 1174,  198
10651, 2448, 2297,  197, 1174
10652, 2432, 2297,  198,  746
10653, 2304, 2432, 2297, 1175
10654, 2304, 2040, 1175, 2297
10655, 2039, 2297, 2304, 2432
10656, 1936, 1938, 1942, 2411
10657, 1756, 1757, 1040, 1079
10658, 2324, 1712, 2349, 1043
10659, 1805, 2249, 1877, 2248
10660, 1755, 1733, 1002, 1001
10661, 2206, 2375, 2236, 2098
10662, 1540, 1728, 2171, 1102
10663, 1529, 1539, 1531, 1528
10664, 1532, 2171, 1064, 1063
10665, 1533, 2232, 1141, 1142
10666, 1544, 2232,  713,  712
10667, 1544, 1535,  751,  752
10668, 1803, 2262, 1802, 1934
10669, 1809, 1906,  571, 1801
10670, 1086, 1686, 1328, 1872
10671, 1865, 1335, 1897, 1332
10672, 1798, 1832, 1802, 1905
10673, 1679, 2283, 1898, 2169
10674, 1679, 1895, 2169, 1898
10675, 1798, 1684, 1802, 1803
10676, 1308, 1397, 1854, 1307
10677, 2216, 1392, 1394,  933
10678, 1567, 1565, 2402, 2006
10679, 1397, 1569, 1570, 1307
10680, 1396,  934, 1398,  935
10681, 1614, 1636, 1278, 1615
10682, 1611, 1347, 1069, 1068
10683, 1815, 1929, 1919, 1931
10684, 1346, 1916, 1348, 1554
10685, 1562, 1563, 1819, 1559
10686, 1559, 1917, 1031, 1070
10687, 1346, 1352, 1969, 1354
10688, 2193,  664, 1920,  625
10689, 1352, 2193, 1920,  625
10690, 1323, 1352, 1353, 1324
10691, 1354, 1353, 1346, 1352
10692, 1346, 1554, 1348, 1917
10693, 1347, 1327, 1029, 1068
10694, 1352, 1916,  625, 1920
10695, 1554, 1557, 1966, 1967
10696, 1559, 1931, 1918, 1070
10697, 1348, 1815, 1554, 1916
10698, 2064, 1700, 1197, 1198
10699, 1319, 1533, 2232, 1141
10700, 1702, 1700, 1884, 2064
10701, 2383,  818,  154,  153
10702, 2383, 2467,  154,  819
10703,  153,  681, 2383,  818
10704,  641,  680, 2172, 1431
10705, 2300, 1427,  780,  779
10706, 1432, 1431, 2384, 1429
10707, 2172, 1431,  642,  641
10708, 1426, 1890, 2172, 1892
10709, 1660, 1662,  419, 1664
10710, 2244, 1736, 1693, 1666
10711, 1614, 1636, 1616, 2382
10712, 1732, 1266, 1663, 1658
10713, 2194, 1382,   53,  299
10714, 1269, 1658,  887,  926
10715, 2335,  260, 2373,  263
10716, 2335, 2373, 2298, 1998
10717,  268, 1849, 2005, 1852
10718, 1781, 1780,  859,  899
10719, 1780,  899, 2350,  898
10720, 2335, 1781, 2373, 1998
10721, 1701,  125, 2458,  709
10722, 1535,  791, 2458,  790
10723, 1702, 2090,  708, 2458
10724, 1320, 1826, 1701, 1700
10725, 2458,  790,  126,  125
10726, 2426, 2458,  126,  708
10727, 1540, 1319, 1101, 1102
10728,  789,  790,  750, 1701
10729, 1871, 1024, 1846,  985
10730, 1871, 1879,  946,  985
10731, 1871, 1792, 2025,  986
10732, 1987, 1986, 2025, 2192
10733, 1868, 2171, 1866, 1986
10734, 1871, 1846, 1879,  985
10735, 1390, 1248, 2025, 1792
10736, 2447, 2065, 2234, 2327
10737, 1988, 1375,  631,  592
10738, 1879, 1847, 1880,  984
10739, 1909, 2460, 1880, 1179
10740, 1744, 2162, 1739, 1795
10741, 1745, 1026, 2025,  987
10742, 1383, 1984, 1385, 1384
10743, 1988, 2181,  591, 1985
10744, 1863,  214, 2234, 1909
10745, 1251, 1255, 1740, 1253
10746, 1402,  968, 2069,  929
10747, 2062, 2069,  967,  928
10748, 2062,  967, 2391,  966
10749, 1636,  940, 1616, 2382
10750, 1271, 2222, 1659, 1658
10751, 2254, 2329,  938, 2350
10752, 2062, 1864,  927, 2222
10753, 2323,  965, 2222,  966
10754, 1734, 1711, 1755, 1977
10755, 1755, 1756, 1041, 1713
10756, 1689, 2244,  497, 1688
10757, 1755, 1756, 1040, 1041
10758, 1789, 2250,  536,  575
10759, 2213, 1787, 2250, 1789
10760, 1636, 2382, 1998,  901
10761, 1636, 1996,  902, 1997
10762, 1339, 1280, 1342, 1341
10763, 1339, 1614, 1279, 1345
10764, 1341, 1340, 1999, 1342
10765, 1990, 2292,  254, 2293
10766, 1340, 1998, 1636, 2382
10767, 1390, 1383, 1248, 2026
10768, 1791, 1390, 1793, 1792
10769, 1389, 1390, 1349, 1384
10770, 1745,  987, 2025, 1792
10771, 1390, 1248, 1383, 2025
10772, 2029, 2316, 2386,  281
10773, 1648, 2226, 1309, 1748
10774, 1309, 2226, 1391, 1748
10775, 2386,  854, 1857, 2226
10776, 2386,  854,   48,   47
10777, 2027, 2226, 1747, 2387
10778, 1648, 1747, 2226, 1748
10779, 1747, 2387,  853,  852
10780, 2226,  893, 1748,  892
10781, 2254,  977, 1511, 2272
10782, 1804, 1753, 1219, 1751
10783, 2213, 1788, 1787, 1789
10784, 1878, 2135, 2260, 2115
10785, 2177, 1811,  613, 1806
10786, 2113, 2364,  653,  692
10787, 1811,  652, 1806, 2184
10788, 1987, 1383, 2025, 1384
10789, 1793, 1390, 1379, 1388
10790, 1831, 2163, 2246, 1744
10791, 1882, 2192, 1731, 1065
10792, 1882, 1883, 1065, 1731
10793, 2274, 2308,   23,  242
10794, 2273, 2308, 2274,  242
10795, 1298, 2274,  788, 2275
10796, 2017, 1995,  323,  322
10797, 2409, 2319,   62,  839
10798, 2017, 1361, 2406, 1995
10799, 1361,  840, 2409, 2406
10800, 1368, 1372, 1371, 2003
10801, 2409,  323,   61,   62
10802, 1540, 1728, 1102, 1101
10803, 1728, 1102, 1062, 1063
10804, 1729, 1196, 1193,  211
10805, 1729, 1193,  212,  211
10806, 1729, 1847,  212, 1193
10807, 1868, 1375, 1988, 1984
10808, 1978, 1199, 1980, 1198
10809, 1403, 2105,  210, 1199
10810, 1423, 2412,  390,  389
10811, 1419, 1604, 2412,  333
10812, 2316,   47,  281,  278
10813, 2379,  855, 2316,   46
10814, 2316,  855,   47,   46
10815, 2386,   48, 2387,  284
10816, 1305, 1856, 1858, 1857
10817, 1305, 1857, 1392, 1391
10818, 1855,  278, 1856,  277
10819, 1657,  842, 2399,   59
10820, 2399,  842,   60,   59
10821, 2399,   60, 2406,  320
10822, 1356,  317, 1994, 2399
10823, 2399, 1995,  320, 2406
10824, 1359, 1358, 1364, 1355
10825, 1356, 1993,  316,  315
10826, 1987, 1985, 2180, 1247
10827, 1987, 1882, 2171, 2192
10828, 2171, 1882, 1064, 2192
10829, 1868, 1383, 1984, 1988
10830, 1544, 1534, 1885, 1886
10831, 1529, 1533, 1544, 1320
10832, 1529, 1540, 1533, 1320
10833, 1881, 2180, 1726, 1730
10834, 1338, 1334, 1337,  737
10835, 1334, 1165,  189,  188
10836, 1334, 1336, 1165,  188
10837, 1332, 1685, 1335, 1897
10838, 1330, 1332, 1600, 1860
10839, 1329, 1337, 1166, 1127
10840, 1596, 2450,  737, 1337
10841, 1125, 1086, 1686, 1328
10842, 2450, 1166,  190,  189
10843, 1313, 2121, 1318, 2010
10844, 2397,  352, 2032,  355
10845, 2343,  353, 2434, 2032
10846, 2434,  353,   71,   72
10847, 2434,   72,  830,  829
10848, 2422, 1716, 1715, 2016
10849, 1717, 1716,  349,  350
10850, 1791, 1794, 1797, 1796
10851, 1756, 2111, 1757, 1079
10852, 1226, 1228, 1773, 1221
10853, 1221, 2205, 1227, 1230
10854, 1875, 1756, 2111, 1757
10855, 1117, 2135, 2111, 1774
10856, 2111, 1757, 1079, 1078
10857, 1643, 1963, 2287,  288
10858, 1406, 1643, 1963, 1642
10859, 2392,  101, 2277,  285
10860, 1638, 1405, 1401, 1406
10861, 1638, 1642, 1406, 1644
10862, 1642, 1644,  413,  414
10863, 2392,  375,  101,  100
10864, 2287,  100, 2392,  288
10865, 2405, 2409,  840,  839
10866, 1360, 1577, 2405, 1575
10867, 2017, 2409,  323, 2406
10868, 2242, 2319, 2405, 2243
10869, 1365, 2399, 2406, 1995
10870, 2003, 2000,  919,  958
10871, 1367, 1366, 1267,  463
10872, 1355, 1360, 1995, 1361
10873, 1414, 1577, 1574, 1575
10874, 2017,  323, 2409,  326
10875, 1356, 2399, 1365, 1995
10876, 1358, 1367, 1637, 1366
10877, 1721, 2179, 1722, 2178
10878, 1348, 1721, 1611, 1918
10879, 1611, 1347, 1068, 1327
10880, 1323, 1611, 1327, 1347
10881, 1929, 1110, 1931, 1071
10882, 1861, 2210, 2212, 1830
10883, 2363,   73,  829,  828
10884, 2363,   73,   72,  829
10885, 2434, 2363,   72,  829
10886, 2211, 2362, 2214, 2212
10887, 2351, 1100,   28,   27
10888, 2336,  234, 2351,   28
10889, 2336, 2351,  234, 1673
10890, 2351,   27, 2352, 1139
10891, 1139, 2352, 1776, 2306
10892, 1776, 2351, 1139, 1100
10893, 1298, 2274, 1296, 1706
10894, 2449, 1172, 2083, 1173
10895, 2086, 1173, 2083, 1134
10896, 2083, 1134, 2266, 1549
10897, 2042, 2085, 2084, 2083
10898, 2331,  194, 2332,  742
10899, 1940, 2136, 2039, 2040
10900, 1738, 1745, 1027, 1731
10901, 1741, 1744, 2164, 2162
10902, 1738,  989, 1325, 1028
10903, 1285, 1744, 1743, 1739
10904, 1351, 1966, 1353, 1354
10905, 1754, 1734, 2245, 1711
10906, 1763, 1756, 1766, 1765
10907, 2097, 2252, 1231, 1876
10908, 1756, 1713, 1766, 1080
10909, 1755, 1040, 2098, 1001
10910, 1754, 1687, 2252, 1688
10911, 1231, 1876, 2252,  577
10912, 2204,  487, 2160,  488
10913, 1660,  458, 1662, 1666
10914,  419, 1660,  458, 1662
10915, 1660,  458, 1666,  457
10916, 1663, 1977, 1658, 1659
10917, 2323, 1945, 2222,  965
10918, 2251, 2176, 2291, 2250
10919, 2039,  746, 2432, 2433
10920, 2039, 2304, 2297, 2040
10921, 2039, 2433, 1941,  785
10922, 2432, 2438,  199, 1176
10923, 2304, 2432, 1176, 2305
10924, 1935, 1707, 2433, 2305
10925, 2304, 2432, 1175, 1176
10926, 1707, 1705,  787,  748
10927, 2438, 1707, 2433,  747
10928, 1558, 1030, 1350,  991
10929, 1564, 1558, 2018,  992
10930, 2203, 2218, 2217, 2230
10931, 2019,  951, 1742, 1743
10932, 1284, 1353, 1346, 1351
10933, 2276,  373,  103,  102
10934, 2276,  103,  373,  372
10935, 1639, 1647, 1641,  411
10936, 2276, 2277,  373,  102
10937, 1380, 1331,  371, 1307
10938, 1309, 2029, 1856, 1857
10939, 2469, 1218, 1161, 1160
10940, 2469, 2466,  732,  184
10941,  772, 2283, 2258, 2187
10942, 2469, 2475, 1160,  183
10943, 1750, 2475, 2469,  731
10944, 2469, 2257, 2466, 1161
10945, 2310, 1779, 1780,  859
10946, 2005, 1781, 1780, 1779
10947, 2005,  263, 1779,  266
10948, 1779, 2373,  860,   41
10949, 2335, 2373, 1781, 1779
10950, 2310,   43,  859,  858
10951, 1311, 1411, 1312, 2123
10952, 1313, 1232, 1236, 1716
10953, 1235,  433, 1244,  434
10954, 2415,   82,  394,  393
10955, 2428,  394, 2415,   81
10956, 2415,  345,   81,   82
10957, 1775, 2358,  158,  676
10958, 2046, 2048,  677, 2358
10959, 2046, 2371, 2358,  677
10960, 2047, 2036,  783, 2085
10961, 2358,  157,  822,  158
10962, 2046, 2038, 2048, 2358
10963, 2371,  822, 2358,  157
10964, 2372,  669, 2090,  668
10965, 2426, 1530, 2458, 2090
10966, 1885, 2372, 1528, 2090
10967, 2090, 1530, 2458, 1702
10968, 1530, 2390, 2426,  792
10969, 1725,  668, 2377,  667
10970, 2202, 1012, 1551, 1501
10971, 2424, 2390,  793,  792
10972, 2202, 1501, 2239, 1012
10973, 2203, 2215, 2156, 1446
10974, 2155, 2156, 2203, 2215
10975, 2071, 2281, 2070, 2253
*NSET, NSET=FIX
   1,   2,   3,   4,  11,  12,  13,  14,  15,  16,  17,  18,  19,  20,  21,  22
  23,  24,  25,  26,  27,  28,  29,  30,  31,  32,  33,  34, 216, 217, 218, 219
 220, 221, 222, 223, 224, 225, 226, 227, 228, 229, 230, 231, 232, 233, 234, 235
 236, 237, 238, 239, 240, 241, 242

** 

*BOUNDARY
FIX,1
FIX,2
FIX,3
FIX,4
FIX,5
FIX,6
** MATERIALS
*MATERIAL,NAME=EL
*ELASTIC
3e+09, 0.4
*SOLID SECTION, ELSET=EALL, MATERIAL=EL
*NSET, NSET=DES
1

*DESIGNVARIABLES, TYPE=COORDINATE
DES
*STEP, NLGEOM
*STATIC
*CLOAD
10,  1,      0.00
213, 1,  45646.17
214, 1,  52707.66
215, 1,  45646.17
7,   1,      0.00

*END STEP

*NODE FILE
 U
***EL FILE
** S, E
*END STEP


*STEP
*SENSITIVITY
*OBJECTIVE
STRAINENERGY
*END STEP