*INCLUDE, INPUT=/home/prateek/Documents/GitHub/Large-Scale-Topology-Optimization/TestCases/NLCB/C3D10/mesh.nam
*NSET, NSET=Load
 2, 3, 6
*BOUNDARY
FIX,1
FIX,2
FIX,3
FIX,4
FIX,5
FIX,6
** MATERIALS
*MATERIAL,NAME=EL
*ELASTIC
12.1e+09, 0.3
*SOLID SECTION, ELSET=EALL, MATERIAL=EL
*NSET, NSET=DES
1

*DESIGNVARIABLES, TYPE=COORDINATE
DES
*STEP, NLGEOM
*STATIC
0.5, 1.0, 1e-03, 0.5
*CONTROLS, PARAMETERS=TIME INCREMENTATION
20,,,100,,,,,,
*AMPLITUDE, NAME=RAMP1
0.0,0.0,1.0,1.0
*CLOAD, AMPLITUDE=RAMP1
Load, 3, -20000

*END STEP

*NODE FILE
 U
***EL FILE
** S, E
*END STEP


*STEP
*SENSITIVITY
*OBJECTIVE
STRAINENERGY
*END STEP