**Block file for optimization
*INCLUDE, INPUT=/home/prateek/Documents/GitHub/Large-Scale-Topology-Optimization/TestCases/UCRMWS/Mesh/mesh.nam
*INCLUDE, INPUT=/home/prateek/Documents/GitHub/Large-Scale-Topology-Optimization/TestCases/UCRMWS/Mesh/fixed.nam
*INCLUDE, INPUT=/home/prateek/Documents/GitHub/Large-Scale-Topology-Optimization/TestCases/UCRMWS/Mesh/surface2P1.nam
*INCLUDE, INPUT=/home/prateek/Documents/GitHub/Large-Scale-Topology-Optimization/TestCases/UCRMWS/Mesh/surface2P2.nam
*INCLUDE, INPUT=/home/prateek/Documents/GitHub/Large-Scale-Topology-Optimization/TestCases/UCRMWS/Mesh/surface2P3.nam
*INCLUDE, INPUT=/home/prateek/Documents/GitHub/Large-Scale-Topology-Optimization/TestCases/UCRMWS/Mesh/surface2P4.nam
*INCLUDE, INPUT=/home/prateek/Documents/GitHub/Large-Scale-Topology-Optimization/TestCases/UCRMWS/Mesh/surface.nam
** Node set Nfix1 has DOF 1(X), DOF 2(Y), DOF 3(Z) fixed
*BOUNDARY
fixed,1
fixed,2
fixed,3


**Add material named EL with elastic properties
*MATERIAL,NAME=EL
*ELASTIC
7e9,0.3

** Apply material EL to element set EALL
*SOLID SECTION, ELSET=EALL, MATERIAL=EL

** Design variable definition
*NSET, NSET=DES
1

*DESIGNVARIABLES, TYPE=COORDINATE
DES

*SOLID SECTION, ELSET=EALL, MATERIAL=EL
*STEP
*STATIC
**Begin setup for static analysis

** Define concentrated load on <nodeset>, <dof>, <magnitude>
*CLOAD
surface,3,0.1

*END STEP
s

*NODE FILE
 U
***EL FILE
** S, E
*END STEP


*STEP
*SENSITIVITY
*OBJECTIVE
STRAINENERGY
*END STEP
