*Heading
** Job name: Job-1 Model name: Model-1
** Generated by: Abaqus/CAE 2022
*NODE, NSET=NALL
      1,          10.,           1.,  0.100000001
      2,          10.,           0.,  0.100000001
      3,          10.,           0.,           0.
      4,          10.,           1.,           0.
      5,           0.,           0.,  0.100000001
      6,           0.,           0.,           0.
      7,           0.,           1.,           0.
      8,           0.,           1.,  0.100000001
      9,          10.,          0.5,  0.100000001
     10,          10.,          0.5,           0.
     11,          9.5,           0.,  0.100000001
     12,           9.,           0.,  0.100000001
     13,          8.5,           0.,  0.100000001
     14,           8.,           0.,  0.100000001
     15,          7.5,           0.,  0.100000001
     16,           7.,           0.,  0.100000001
     17,          6.5,           0.,  0.100000001
     18,           6.,           0.,  0.100000001
     19,          5.5,           0.,  0.100000001
     20,           5.,           0.,  0.100000001
     21,          4.5,           0.,  0.100000001
     22,           4.,           0.,  0.100000001
     23,          3.5,           0.,  0.100000001
     24,           3.,           0.,  0.100000001
     25,          2.5,           0.,  0.100000001
     26,           2.,           0.,  0.100000001
     27,          1.5,           0.,  0.100000001
     28,           1.,           0.,  0.100000001
     29,          0.5,           0.,  0.100000001
     30,          0.5,           0.,           0.
     31,           1.,           0.,           0.
     32,          1.5,           0.,           0.
     33,           2.,           0.,           0.
     34,          2.5,           0.,           0.
     35,           3.,           0.,           0.
     36,          3.5,           0.,           0.
     37,           4.,           0.,           0.
     38,          4.5,           0.,           0.
     39,           5.,           0.,           0.
     40,          5.5,           0.,           0.
     41,           6.,           0.,           0.
     42,          6.5,           0.,           0.
     43,           7.,           0.,           0.
     44,          7.5,           0.,           0.
     45,           8.,           0.,           0.
     46,          8.5,           0.,           0.
     47,           9.,           0.,           0.
     48,          9.5,           0.,           0.
     49,           0.,          0.5,           0.
     50,          0.5,           1.,           0.
     51,           1.,           1.,           0.
     52,          1.5,           1.,           0.
     53,           2.,           1.,           0.
     54,          2.5,           1.,           0.
     55,           3.,           1.,           0.
     56,          3.5,           1.,           0.
     57,           4.,           1.,           0.
     58,          4.5,           1.,           0.
     59,           5.,           1.,           0.
     60,          5.5,           1.,           0.
     61,           6.,           1.,           0.
     62,          6.5,           1.,           0.
     63,           7.,           1.,           0.
     64,          7.5,           1.,           0.
     65,           8.,           1.,           0.
     66,          8.5,           1.,           0.
     67,           9.,           1.,           0.
     68,          9.5,           1.,           0.
     69,          0.5,           1.,  0.100000001
     70,           1.,           1.,  0.100000001
     71,          1.5,           1.,  0.100000001
     72,           2.,           1.,  0.100000001
     73,          2.5,           1.,  0.100000001
     74,           3.,           1.,  0.100000001
     75,          3.5,           1.,  0.100000001
     76,           4.,           1.,  0.100000001
     77,          4.5,           1.,  0.100000001
     78,           5.,           1.,  0.100000001
     79,          5.5,           1.,  0.100000001
     80,           6.,           1.,  0.100000001
     81,          6.5,           1.,  0.100000001
     82,           7.,           1.,  0.100000001
     83,          7.5,           1.,  0.100000001
     84,           8.,           1.,  0.100000001
     85,          8.5,           1.,  0.100000001
     86,           9.,           1.,  0.100000001
     87,          9.5,           1.,  0.100000001
     88,           0.,          0.5,  0.100000001
     89,          9.5,          0.5,           0.
     90,           9.,          0.5,           0.
     91,          8.5,          0.5,           0.
     92,           8.,          0.5,           0.
     93,          7.5,          0.5,           0.
     94,           7.,          0.5,           0.
     95,          6.5,          0.5,           0.
     96,           6.,          0.5,           0.
     97,          5.5,          0.5,           0.
     98,           5.,          0.5,           0.
     99,          4.5,          0.5,           0.
    100,           4.,          0.5,           0.
    101,          3.5,          0.5,           0.
    102,           3.,          0.5,           0.
    103,          2.5,          0.5,           0.
    104,           2.,          0.5,           0.
    105,          1.5,          0.5,           0.
    106,           1.,          0.5,           0.
    107,          0.5,          0.5,           0.
    108,          0.5,          0.5,  0.100000001
    109,           1.,          0.5,  0.100000001
    110,          1.5,          0.5,  0.100000001
    111,           2.,          0.5,  0.100000001
    112,          2.5,          0.5,  0.100000001
    113,           3.,          0.5,  0.100000001
    114,          3.5,          0.5,  0.100000001
    115,           4.,          0.5,  0.100000001
    116,          4.5,          0.5,  0.100000001
    117,           5.,          0.5,  0.100000001
    118,          5.5,          0.5,  0.100000001
    119,           6.,          0.5,  0.100000001
    120,          6.5,          0.5,  0.100000001
    121,           7.,          0.5,  0.100000001
    122,          7.5,          0.5,  0.100000001
    123,           8.,          0.5,  0.100000001
    124,          8.5,          0.5,  0.100000001
    125,           9.,          0.5,  0.100000001
    126,          9.5,          0.5,  0.100000001
    127,          9.5,         0.25, 0.0500000007
    128,          9.5,          0.5, 0.0500000007
    129,          9.5,         0.25,           0.
    130,         9.75,         0.25,           0.
    131,         9.75,           0.,           0.
    132,         9.75,         0.25, 0.0500000007
    133,         7.25,         0.75,           0.
    134,          7.5,          0.5, 0.0500000007
    135,         7.25,         0.75, 0.0500000007
    136,          7.5,         0.75, 0.0500000007
    137,         7.25,           1.,           0.
    138,          7.5,         0.75,           0.
    139,          6.5,         0.75, 0.0500000007
    140,          6.5,           1., 0.0500000007
    141,          6.5,         0.75,  0.100000001
    142,         6.25,           1.,  0.100000001
    143,         6.25,         0.75,  0.100000001
    144,         6.25,           1., 0.0500000007
    145,         6.75,         0.75,  0.100000001
    146,         6.75,         0.75, 0.0500000007
    147,         6.75,           1.,           0.
    148,           7.,         0.75, 0.0500000007
    149,         6.75,           1., 0.0500000007
    150,          6.5,         0.25,           0.
    151,          6.5,          0.5, 0.0500000007
    152,          6.5,         0.25, 0.0500000007
    153,         6.25,          0.5, 0.0500000007
    154,         6.25,         0.25,           0.
    155,         6.25,          0.5,           0.
    156,         6.25,          0.5,  0.100000001
    157,           6.,          0.5, 0.0500000007
    158,           6.,         0.75,           0.
    159,         6.25,         0.75, 0.0500000007
    160,           6.,         0.75, 0.0500000007
    161,           6.,         0.25, 0.0500000007
    162,           6.,         0.25,  0.100000001
    163,         5.75,          0.5,  0.100000001
    164,         5.75,         0.25,  0.100000001
    165,         5.75,          0.5, 0.0500000007
    166,          5.5,          0.5, 0.0500000007
    167,         5.75,         0.25, 0.0500000007
    168,         5.75,          0.5,           0.
    169,          5.5,         0.25, 0.0500000007
    170,          5.5,         0.25,           0.
    171,         5.75,           0., 0.0500000007
    172,         5.75,         0.75,  0.100000001
    173,         5.75,         0.75, 0.0500000007
    174,          5.5,         0.75,  0.100000001
    175,         5.25,         0.25,  0.100000001
    176,           5.,         0.25,  0.100000001
    177,         5.25,           0.,  0.100000001
    178,           5.,           0., 0.0500000007
    179,         5.25,           0., 0.0500000007
    180,           5.,         0.25, 0.0500000007
    181,         4.75,          0.5,  0.100000001
    182,          4.5,          0.5, 0.0500000007
    183,         4.75,          0.5, 0.0500000007
    184,          4.5,         0.75,           0.
    185,         4.75,         0.75, 0.0500000007
    186,          4.5,         0.75, 0.0500000007
    187,         4.75,         0.25, 0.0500000007
    188,         4.75,         0.25,           0.
    189,         5.25,         0.75,           0.
    190,         5.25,         0.75, 0.0500000007
    191,          5.5,         0.75, 0.0500000007
    192,         5.25,           1.,           0.
    193,          5.5,         0.75,           0.
    194,         4.75,         0.75,  0.100000001
    195,          4.5,           1., 0.0500000007
    196,         4.75,           1.,           0.
    197,           5.,         0.75, 0.0500000007
    198,         4.75,           1., 0.0500000007
    199,           5.,           1., 0.0500000007
    200,           5.,         0.75,  0.100000001
    201,         4.75,           1.,  0.100000001
    202,         4.25,         0.75,  0.100000001
    203,           4.,           1., 0.0500000007
    204,         4.25,         0.75, 0.0500000007
    205,         4.25,           1.,           0.
    206,         4.25,           1., 0.0500000007
    207,         4.25,          0.5, 0.0500000007
    208,          4.5,         0.25,           0.
    209,         4.25,         0.25, 0.0500000007
    210,          4.5,         0.25, 0.0500000007
    211,         4.25,          0.5,  0.100000001
    212,           4.,         0.75,  0.100000001
    213,           4.,         0.75, 0.0500000007
    214,         3.75,           0.,  0.100000001
    215,          3.5,           0., 0.0500000007
    216,         3.75,           0., 0.0500000007
    217,          3.5,         0.25, 0.0500000007
    218,         3.75,         0.25,  0.100000001
    219,          3.5,         0.25,  0.100000001
    220,           4.,         0.25,           0.
    221,         4.25,         0.25,           0.
    222,         4.25,           0.,           0.
    223,           4.,         0.25, 0.0500000007
    224,           4.,          0.5, 0.0500000007
    225,           4.,         0.25,  0.100000001
    226,           4.,           0., 0.0500000007
    227,         3.75,         0.25, 0.0500000007
    228,         3.75,          0.5,  0.100000001
    229,         3.75,          0.5, 0.0500000007
    230,         3.75,         0.25,           0.
    231,         3.75,          0.5,           0.
    232,         3.75,           1.,  0.100000001
    233,         3.75,         0.75,  0.100000001
    234,         3.75,           1., 0.0500000007
    235,         3.25,         0.25, 0.0500000007
    236,         3.25,         0.25,  0.100000001
    237,         3.25,          0.5,  0.100000001
    238,          2.5,         0.75,  0.100000001
    239,          2.5,           1., 0.0500000007
    240,          2.5,         0.75, 0.0500000007
    241,         2.75,         0.75, 0.0500000007
    242,         2.75,          0.5,  0.100000001
    243,         2.75,         0.75,  0.100000001
    244,         8.75,          0.5,           0.
    245,          8.5,          0.5, 0.0500000007
    246,         8.75,          0.5, 0.0500000007
    247,         8.75,         0.25, 0.0500000007
    248,           9.,         0.25,           0.
    249,         8.75,         0.25,           0.
    250,         7.25,         0.25,  0.100000001
    251,          7.5,           0., 0.0500000007
    252,         7.25,         0.25, 0.0500000007
    253,         7.25,           0.,           0.
    254,           7.,         0.25, 0.0500000007
    255,         7.25,           0., 0.0500000007
    256,           3.,         0.75, 0.0500000007
    257,           3.,           1., 0.0500000007
    258,           3.,         0.75,  0.100000001
    259,         2.75,           1.,  0.100000001
    260,         2.75,           1., 0.0500000007
    261,           2.,           1., 0.0500000007
    262,         2.25,         0.75,           0.
    263,         2.25,         0.75, 0.0500000007
    264,          2.5,         0.75,           0.
    265,         2.25,           1., 0.0500000007
    266,         2.25,           1.,           0.
    267,           2.,         0.75,           0.
    268,           2.,          0.5, 0.0500000007
    269,           2.,         0.75, 0.0500000007
    270,         2.25,          0.5, 0.0500000007
    271,         2.25,          0.5,           0.
    272,         1.75,           1.,           0.
    273,          1.5,           1., 0.0500000007
    274,         1.75,           1., 0.0500000007
    275,         1.75,         0.75,  0.100000001
    276,         1.75,         0.75, 0.0500000007
    277,         1.75,         0.75,           0.
    278,          1.5,         0.75,  0.100000001
    279,         1.75,          0.5,  0.100000001
    280,          1.5,         0.75, 0.0500000007
    281,          1.5,         0.25, 0.0500000007
    282,          1.5,          0.5, 0.0500000007
    283,          1.5,         0.25,  0.100000001
    284,         1.25,          0.5,  0.100000001
    285,         1.25,         0.25,  0.100000001
    286,         1.25,          0.5, 0.0500000007
    287,          1.5,         0.25,           0.
    288,         1.75,         0.25,           0.
    289,         1.75,           0.,           0.
    290,           2.,           0., 0.0500000007
    291,         1.75,           0., 0.0500000007
    292,         1.75,         0.25, 0.0500000007
    293,          2.5,         0.25,  0.100000001
    294,          2.5,           0., 0.0500000007
    295,          2.5,         0.25, 0.0500000007
    296,         2.25,         0.25, 0.0500000007
    297,         2.25,          0.5,  0.100000001
    298,         2.25,         0.25,  0.100000001
    299,          1.5,         0.75,           0.
    300,         1.25,         0.75, 0.0500000007
    301,         1.25,           1., 0.0500000007
    302,         1.25,         0.75,  0.100000001
    303,           1.,         0.75,  0.100000001
    304,         0.75,           1.,  0.100000001
    305,         0.75,         0.75,  0.100000001
    306,         0.75,           1., 0.0500000007
    307,           1.,         0.75, 0.0500000007
    308,           1.,           1., 0.0500000007
    309,         0.75,         0.75, 0.0500000007
    310,         0.75,           1.,           0.
    311,          0.5,           1., 0.0500000007
    312,          0.5,         0.75,           0.
    313,         0.25,         0.75,           0.
    314,         0.25,           1.,           0.
    315,         0.25,         0.75, 0.0500000007
    316,          0.5,         0.75, 0.0500000007
    317,          0.5,          0.5, 0.0500000007
    318,         0.25,         0.75,  0.100000001
    319,           0.,           1., 0.0500000007
    320,         0.25,           1., 0.0500000007
    321,           0.,         0.75, 0.0500000007
    322,         0.25,          0.5,  0.100000001
    323,         0.25,          0.5, 0.0500000007
    324,         0.75,         0.75,           0.
    325,         0.75,          0.5, 0.0500000007
    326,           1.,          0.5, 0.0500000007
    327,         0.75,          0.5,  0.100000001
    328,           9.,         0.25,  0.100000001
    329,           9.,           0., 0.0500000007
    330,           9.,         0.25, 0.0500000007
    331,         8.75,          0.5,  0.100000001
    332,         8.75,         0.25,  0.100000001
    333,         9.25,          0.5, 0.0500000007
    334,         9.25,          0.5,  0.100000001
    335,         9.25,         0.75,  0.100000001
    336,           9.,         0.75,  0.100000001
    337,         9.25,         0.75, 0.0500000007
    338,         9.25,           1.,           0.
    339,           9.,           1., 0.0500000007
    340,         9.25,           1., 0.0500000007
    341,          9.5,         0.75,           0.
    342,         9.25,         0.75,           0.
    343,         8.75,           0.,  0.100000001
    344,          8.5,           0., 0.0500000007
    345,         8.75,           0., 0.0500000007
    346,          8.5,         0.25, 0.0500000007
    347,          8.5,         0.25,  0.100000001
    348,         7.75,          0.5, 0.0500000007
    349,           8.,          0.5, 0.0500000007
    350,         7.75,          0.5,  0.100000001
    351,         7.75,         0.75,  0.100000001
    352,          7.5,         0.75,  0.100000001
    353,         7.75,         0.75, 0.0500000007
    354,           7.,         0.75,  0.100000001
    355,         6.75,           1.,  0.100000001
    356,           7.,           1., 0.0500000007
    357,           8.,           1., 0.0500000007
    358,         8.25,         0.75,           0.
    359,         8.25,         0.75, 0.0500000007
    360,          8.5,         0.75,           0.
    361,         8.25,           1., 0.0500000007
    362,         8.25,           1.,           0.
    363,         7.25,           1.,  0.100000001
    364,         7.25,         0.75,  0.100000001
    365,         7.25,           1., 0.0500000007
    366,          7.5,           1., 0.0500000007
    367,         7.75,           1., 0.0500000007
    368,           8.,         0.75,           0.
    369,           8.,         0.75, 0.0500000007
    370,         7.75,           1.,  0.100000001
    371,         7.25,          0.5,           0.
    372,           7.,         0.75,           0.
    373,         7.25,          0.5, 0.0500000007
    374,          6.5,         0.75,           0.
    375,         6.25,         0.75,           0.
    376,         6.25,           1.,           0.
    377,           7.,          0.5, 0.0500000007
    378,         6.75,         0.75,           0.
    379,         6.75,          0.5, 0.0500000007
    380,         6.75,          0.5,           0.
    381,         5.75,           1., 0.0500000007
    382,          5.5,           1., 0.0500000007
    383,         5.75,         0.75,           0.
    384,           6.,         0.75,  0.100000001
    385,         5.75,           1.,  0.100000001
    386,           6.,           1., 0.0500000007
    387,         6.75,           0.,           0.
    388,           7.,           0., 0.0500000007
    389,         6.75,           0., 0.0500000007
    390,         6.75,         0.25, 0.0500000007
    391,         6.75,         0.25,           0.
    392,          4.5,         0.75,  0.100000001
    393,         4.25,           1.,  0.100000001
    394,         4.25,          0.5,           0.
    395,         4.25,         0.75,           0.
    396,           4.,         0.75,           0.
    397,           5.,          0.5, 0.0500000007
    398,         4.75,         0.75,           0.
    399,         4.75,          0.5,           0.
    400,         5.25,         0.75,  0.100000001
    401,         5.25,          0.5,  0.100000001
    402,          3.5,         0.75, 0.0500000007
    403,          3.5,          0.5, 0.0500000007
    404,          3.5,         0.75,           0.
    405,         3.25,         0.75, 0.0500000007
    406,         3.25,           1., 0.0500000007
    407,         3.25,         0.75,  0.100000001
    408,           3.,         0.25,  0.100000001
    409,         3.25,           0.,  0.100000001
    410,           3.,           0., 0.0500000007
    411,         3.25,           0., 0.0500000007
    412,           3.,         0.25, 0.0500000007
    413,           2.,         0.25,           0.
    414,           2.,         0.25, 0.0500000007
    415,         1.75,          0.5, 0.0500000007
    416,         1.75,          0.5,           0.
    417,         2.25,           1.,  0.100000001
    418,         2.25,         0.75,  0.100000001
    419,           2.,         0.75,  0.100000001
    420,         1.25,           1.,  0.100000001
    421,         0.75,          0.5,           0.
    422,         0.25,          0.5,           0.
    423,           0.,         0.75,           0.
    424,           0.,          0.5, 0.0500000007
    425,          0.5,         0.75,  0.100000001
    426,           0.,         0.75,  0.100000001
    427,         0.25,         0.25,  0.100000001
    428,         0.25,         0.25, 0.0500000007
    429,           0.,         0.25, 0.0500000007
    430,           0.,         0.25,  0.100000001
    431,         0.25,           0.,  0.100000001
    432,         0.25,           1.,  0.100000001
    433,           1.,         0.75,           0.
    434,         1.25,         0.75,           0.
    435,         1.25,           1.,           0.
    436,           5.,         0.25,           0.
    437,          0.5,           0., 0.0500000007
    438,          0.5,         0.25,           0.
    439,          0.5,         0.25, 0.0500000007
    440,         0.25,         0.25,           0.
    441,         1.25,         0.25, 0.0500000007
    442,           1.,         0.25, 0.0500000007
    443,           1.,         0.25,  0.100000001
    444,         1.25,           0.,  0.100000001
    445,         2.75,         0.75,           0.
    446,           3.,          0.5, 0.0500000007
    447,         2.75,           1.,           0.
    448,           3.,         0.75,           0.
    449,           7.,         0.25,           0.
    450,          3.5,         0.75,  0.100000001
    451,         3.25,           1.,  0.100000001
    452,          3.5,           1., 0.0500000007
    453,         3.25,         0.75,           0.
    454,         3.25,           1.,           0.
    455,         5.25,          0.5, 0.0500000007
    456,           5.,         0.75,           0.
    457,         3.75,         0.75, 0.0500000007
    458,         3.75,         0.75,           0.
    459,         5.25,          0.5,           0.
    460,         5.25,         0.25,           0.
    461,         9.25,         0.25, 0.0500000007
    462,         4.75,         0.25,  0.100000001
    463,          4.5,         0.25,  0.100000001
    464,         4.75,           0.,  0.100000001
    465,          4.5,           0., 0.0500000007
    466,         4.75,           0., 0.0500000007
    467,         5.25,           1., 0.0500000007
    468,         5.25,           1.,  0.100000001
    469,         6.25,         0.25, 0.0500000007
    470,         6.25,         0.25,  0.100000001
    471,         6.25,           0.,  0.100000001
    472,         7.25,          0.5,  0.100000001
    473,         7.75,         0.75,           0.
    474,           9.,         0.75,           0.
    475,           9.,          0.5, 0.0500000007
    476,           9.,         0.75, 0.0500000007
    477,         9.25,          0.5,           0.
    478,          0.5,         0.25,  0.100000001
    479,         9.75,          0.5,           0.
    480,         9.75,          0.5, 0.0500000007
    481,         9.75,         0.75, 0.0500000007
    482,          9.5,         0.75,  0.100000001
    483,          9.5,         0.75, 0.0500000007
    484,         0.75,           0., 0.0500000007
    485,         0.75,         0.25, 0.0500000007
    486,         0.75,           0.,  0.100000001
    487,         0.75,         0.25,  0.100000001
    488,          2.5,          0.5, 0.0500000007
    489,         1.25,          0.5,           0.
    490,         2.75,          0.5, 0.0500000007
    491,         1.75,           1.,  0.100000001
    492,         9.25,         0.25,  0.100000001
    493,          9.5,         0.25,  0.100000001
    494,          9.5,           0., 0.0500000007
    495,         3.25,          0.5, 0.0500000007
    496,         3.25,          0.5,           0.
    497,         3.25,         0.25,           0.
    498,          3.5,         0.25,           0.
    499,         2.75,          0.5,           0.
    500,           3.,         0.25,           0.
    501,         2.75,         0.25,           0.
    502,         2.75,         0.25, 0.0500000007
    503,         3.75,           1.,           0.
    504,          2.5,         0.25,           0.
    505,         9.25,           1.,  0.100000001
    506,         3.25,           0.,           0.
    507,         2.75,         0.25,  0.100000001
    508,         2.75,           0.,  0.100000001
    509,         2.75,           0., 0.0500000007
    510,         3.75,           0.,           0.
    511,         4.25,         0.25,  0.100000001
    512,         5.25,         0.25, 0.0500000007
    513,          5.5,         0.25,  0.100000001
    514,          5.5,           0., 0.0500000007
    515,         4.25,           0., 0.0500000007
    516,         5.75,           1.,           0.
    517,         6.75,          0.5,  0.100000001
    518,         6.25,           0.,           0.
    519,           6.,         0.25,           0.
    520,         6.25,           0., 0.0500000007
    521,          6.5,           0., 0.0500000007
    522,         8.25,          0.5,           0.
    523,         8.75,         0.75, 0.0500000007
    524,          8.5,         0.75, 0.0500000007
    525,         8.75,         0.75,           0.
    526,         7.75,           1.,           0.
    527,          6.5,         0.25,  0.100000001
    528,           6.,           0., 0.0500000007
    529,         5.75,         0.25,           0.
    530,         7.75,           0.,  0.100000001
    531,         7.75,           0., 0.0500000007
    532,          7.5,         0.25, 0.0500000007
    533,         7.75,         0.25,  0.100000001
    534,          7.5,         0.25,  0.100000001
    535,          8.5,           1., 0.0500000007
    536,         8.75,         0.75,  0.100000001
    537,          8.5,         0.75,  0.100000001
    538,         5.75,           0.,  0.100000001
    539,         8.25,         0.25,  0.100000001
    540,         8.25,         0.25, 0.0500000007
    541,           8.,         0.25, 0.0500000007
    542,           8.,         0.25,  0.100000001
    543,         8.25,           0.,  0.100000001
    544,         8.75,           1.,           0.
    545,         8.75,           1., 0.0500000007
    546,          7.5,         0.25,           0.
    547,         7.25,         0.25,           0.
    548,         9.25,           0., 0.0500000007
    549,         9.25,           0.,           0.
    550,          10.,         0.25,           0.
    551,         8.75,           0.,           0.
    552,           2.,         0.25,  0.100000001
    553,         1.75,         0.25,  0.100000001
    554,           0.,         0.25,           0.
    555,           0.,           0., 0.0500000007
    556,         0.25,           0., 0.0500000007
    557,           1.,         0.25,           0.
    558,         0.75,         0.25,           0.
    559,           1.,           0., 0.0500000007
    560,         0.25,           0.,           0.
    561,         1.25,           0., 0.0500000007
    562,         0.75,           0.,           0.
    563,         2.25,           0.,  0.100000001
    564,         2.25,           0., 0.0500000007
    565,         2.25,         0.25,           0.
    566,         2.25,           0.,           0.
    567,         1.25,         0.25,           0.
    568,         1.25,           0.,           0.
    569,          1.5,           0., 0.0500000007
    570,         1.75,           0.,  0.100000001
    571,         2.75,           0.,           0.
    572,         4.25,           0.,  0.100000001
    573,         4.75,           0.,           0.
    574,         6.75,         0.25,  0.100000001
    575,           7.,         0.25,  0.100000001
    576,         5.25,           0.,           0.
    577,         5.75,           0.,           0.
    578,         6.75,           0.,  0.100000001
    579,           8.,           0., 0.0500000007
    580,         7.75,         0.25,           0.
    581,         7.75,         0.25, 0.0500000007
    582,         7.75,           0.,           0.
    583,         8.25,         0.25,           0.
    584,         8.25,          0.5, 0.0500000007
    585,           8.,         0.25,           0.
    586,         7.75,          0.5,           0.
    587,         8.25,          0.5,  0.100000001
    588,         9.25,         0.25,           0.
    589,          8.5,         0.25,           0.
    590,         9.25,           0.,  0.100000001
    591,         8.25,           0., 0.0500000007
    592,         9.75,          0.5,  0.100000001
    593,          10.,          0.5, 0.0500000007
    594,          10.,         0.25, 0.0500000007
    595,         8.25,           0.,           0.
    596,         9.75,           0., 0.0500000007
    597,         9.75,         0.25,  0.100000001
    598,         9.75,           0.,  0.100000001
    599,          10.,           0., 0.0500000007
    600,         8.25,         0.75,  0.100000001
    601,         9.75,         0.75,  0.100000001
    602,         9.75,           1.,  0.100000001
    603,          10.,         0.75, 0.0500000007
    604,          10.,         0.75,  0.100000001
    605,          10.,         0.25,  0.100000001
    606,         8.75,           1.,  0.100000001
    607,         9.75,           1., 0.0500000007
    608,          10.,         0.75,           0.
    609,         9.75,         0.75,           0.
    610,         9.75,           1.,           0.
    611,          9.5,           1., 0.0500000007
    612,         7.25,           0.,  0.100000001
    613,          10.,           1., 0.0500000007
    614,           8.,         0.75,  0.100000001
    615,         8.25,           1.,  0.100000001
*ELEMENT, TYPE=C3D10, ELSET=EALL
  1,  48,  89, 126,   3, 129, 128, 127, 131, 130, 132
  2,  63, 122,  93,  64, 135, 134, 133, 137, 136, 138
  3, 120,  81,  62,  80, 141, 140, 139, 143, 142, 144
  4, 121,  62,  81,  63, 146, 140, 145, 148, 147, 149
  5,  42, 120,  95,  96, 152, 151, 150, 154, 153, 155
  6, 120,  96, 119,  61, 153, 157, 156, 159, 158, 160
  7,  18, 119,  96, 118, 162, 157, 161, 164, 163, 165
  8,  18,  97, 118,  96, 167, 166, 164, 161, 168, 165
  9,  40,  97, 118,  18, 170, 166, 169, 171, 167, 164
 10,  79,  96, 119, 118, 173, 157, 172, 174, 165, 163
 11,  19,  20, 117,  39, 177, 176, 175, 179, 178, 180
 12, 117,  99, 116,  58, 183, 182, 181, 185, 184, 186
 13, 117, 116,  99,  39, 181, 182, 183, 180, 187, 188
 14,  59, 118,  97,  60, 190, 166, 189, 192, 191, 193
 15, 117,  58,  77,  59, 185, 195, 194, 197, 196, 198
 16, 117,  78,  59,  77, 200, 199, 197, 194, 201, 198
 17, 116,  57,  76,  58, 204, 203, 202, 186, 205, 206
 18, 115,  38,  99, 116, 209, 208, 207, 211, 210, 182
 19, 115,  57,  76, 116, 213, 203, 212, 211, 204, 202
 20,  22,  36,  23, 114, 216, 215, 214, 218, 217, 219
 21,  37,  38, 100, 115, 222, 221, 220, 223, 209, 224
 22, 115,  37,  22, 114, 223, 226, 225, 228, 227, 218
 23, 115,  37, 101, 100, 223, 230, 229, 224, 220, 231
 24, 115,  76,  57,  75, 212, 203, 213, 233, 232, 234
 25, 113,  23,  36, 114, 236, 215, 235, 237, 219, 217
 26, 112,  54,  73, 113, 240, 239, 238, 242, 241, 243
 27,  90, 124,  91,  47, 246, 245, 244, 248, 247, 249
 28, 121,  44,  15,  43, 252, 251, 250, 254, 253, 255
 29, 113,  74,  55,  73, 258, 257, 256, 243, 259, 260
 30,  72, 103,  53,  54, 263, 262, 261, 265, 264, 266
 31,  53, 111, 104, 103, 269, 268, 267, 262, 270, 271
 32,  53,  71,  52, 111, 274, 273, 272, 269, 275, 276
 33,  52, 111, 104,  53, 276, 268, 277, 272, 269, 267
 34, 111,  71,  52, 110, 275, 273, 276, 279, 278, 280
 35,  27, 110, 105, 109, 283, 282, 281, 285, 284, 286
 36,  32,  33, 105,  26, 289, 288, 287, 291, 290, 292
 37, 112,  34,  25, 111, 295, 294, 293, 297, 296, 298
 38,  52, 105, 110,  70, 299, 282, 280, 301, 300, 302
 39, 109,  69,  70,  51, 305, 304, 303, 307, 306, 308
 40,  51, 109,  69,  50, 307, 305, 306, 310, 309, 311
 41,  50,   7, 107, 108, 314, 313, 312, 316, 315, 317
 42,   7,   8, 108,  50, 319, 318, 315, 314, 320, 316
 43, 108,   7, 107,  88, 315, 313, 317, 322, 321, 323
 44, 108, 106,  50, 109, 325, 324, 316, 327, 326, 309
 45, 125,  47,  12, 124, 330, 329, 328, 331, 247, 332
 46, 125, 126,  89,  86, 334, 128, 333, 336, 335, 337
 47,  68,  86,  67,  89, 340, 339, 338, 341, 337, 342
 48,  12,  46,  13, 124, 345, 344, 343, 332, 346, 347
 49, 122, 123,  92,  83, 350, 349, 348, 352, 351, 353
 50, 121,  81,  82,  63, 145, 355, 354, 148, 149, 356
 51,  84,  91,  65,  66, 359, 358, 357, 361, 360, 362
 52, 122,  82,  83,  64, 364, 363, 352, 136, 365, 366
 53,  83,  92,  65,  84, 353, 368, 367, 370, 369, 357
 54,  63,  93, 122,  94, 133, 134, 135, 372, 371, 373
 55,  64,  82,  63, 122, 365, 356, 137, 136, 364, 135
 56,  62,  95, 120,  61, 374, 151, 139, 376, 375, 159
 57, 121,  62,  94,  95, 146, 378, 377, 379, 374, 380
 58,  61,  96, 119,  79, 158, 157, 160, 381, 173, 172
 59, 118,  60,  79,  96, 191, 382, 174, 165, 383, 173
 60,  79,  80, 119,  61, 385, 384, 172, 381, 386, 160
 61,  42,  16,  43,  95, 389, 388, 387, 150, 390, 391
 62, 116,  76,  77,  58, 202, 393, 392, 186, 206, 195
 63, 115,  99, 100,  57, 207, 394, 224, 213, 395, 396
 64, 117,  58,  98,  99, 185, 398, 397, 183, 184, 399
 65, 118,  78,  59, 117, 400, 199, 190, 401, 200, 197
 66,  56, 101, 114,  74, 404, 403, 402, 406, 405, 407
 67,  23,  24, 113,  35, 409, 408, 236, 411, 410, 412
 68,  33, 111, 104, 105, 414, 268, 413, 288, 415, 416
 69,  72,  54,  73, 112, 265, 239, 417, 418, 240, 238
 70, 111, 103,  53,  72, 270, 262, 269, 419, 263, 261
 71, 110,  70,  71,  52, 302, 420, 278, 280, 301, 273
 72,  50, 108, 107, 106, 316, 317, 312, 324, 325, 421
 73,   7,  49, 107,  88, 423, 422, 313, 321, 424, 323
 74,  50, 109,  69, 108, 309, 305, 311, 316, 327, 425
 75,  88,   8, 108,   7, 426, 318, 322, 321, 319, 315
 76,  88,  49,  29,   5, 424, 428, 427, 430, 429, 431
 77,  50, 108,  69,   8, 316, 425, 311, 320, 318, 432
 78, 109, 106,  50,  51, 326, 324, 309, 307, 433, 310
 79, 105,  51,  70,  52, 434, 308, 300, 299, 435, 301
 80,  99,  39,  98, 117, 188, 436, 399, 183, 180, 397
 81,  29, 107,  30,  49, 439, 438, 437, 428, 422, 440
 82,  52, 105, 104, 111, 299, 416, 277, 276, 415, 268
 83, 109, 106,  27,  28, 326, 441, 285, 443, 442, 444
 84, 109,  51,  70, 105, 307, 308, 303, 286, 434, 300
 85,  54, 113, 102,  55, 241, 446, 445, 447, 256, 448
 86,  95,  94, 121,  43, 380, 377, 379, 391, 449, 254
 87, 114,  74,  75,  56, 407, 451, 450, 402, 406, 452
 88,  37, 101, 114, 115, 230, 403, 227, 223, 229, 228
 89, 101,  55,  74,  56, 453, 257, 405, 404, 454, 406
 90, 118,  98, 117,  59, 455, 397, 401, 190, 456, 197
 91, 115, 114,  75,  56, 228, 450, 233, 457, 402, 452
 92,  58,  99, 116,  57, 184, 182, 186, 205, 395, 204
 93, 115,  56, 100, 101, 457, 458, 224, 229, 404, 231
 94,  98,  97, 118,  40, 459, 166, 455, 460, 170, 169
 95, 126,  89,  48, 125, 128, 129, 127, 334, 333, 461
 96,  59,  97, 118,  98, 189, 166, 190, 456, 459, 455
 97,  20,  21, 116,  38, 464, 463, 462, 466, 465, 210
 98, 117, 116,  77,  58, 181, 392, 194, 185, 186, 195
 99,  60, 118,  79,  78, 191, 174, 382, 467, 400, 468
100,  61,  95, 120,  96, 375, 151, 159, 158, 155, 153
101,  17, 119,  96,  18, 470, 157, 469, 471, 162, 161
102, 119,  61,  80, 120, 160, 386, 384, 156, 159, 143
103, 122,  82,  63, 121, 364, 356, 135, 472, 354, 148
104,  92,  83,  64, 122, 353, 366, 473, 348, 352, 136
105,  67, 125,  90,  89, 476, 475, 474, 342, 333, 477
106,  29,  88, 108, 107, 427, 322, 478, 439, 323, 317
107, 105, 110, 111,  52, 282, 279, 415, 299, 280, 276
108,  89,  86,  67, 125, 337, 339, 342, 333, 336, 476
109, 126,  10,  89,  87, 480, 479, 128, 482, 481, 483
110,  28, 107,  30,  29, 485, 438, 484, 486, 439, 437
111, 106, 108, 107,  28, 325, 317, 421, 442, 487, 485
112, 103, 112,  72, 111, 488, 418, 263, 270, 297, 419
113,  88,  49, 107,  29, 424, 422, 323, 427, 428, 439
114, 105, 109, 106,  27, 286, 326, 489, 281, 285, 441
115,  55,  73,  54, 113, 260, 239, 447, 256, 243, 241
116, 113, 103, 112,  54, 490, 488, 242, 241, 264, 240
117,  53, 111,  72,  71, 269, 419, 261, 274, 275, 491
118, 125, 126,  11,  48, 334, 493, 492, 461, 127, 494
119,  28, 109, 106, 108, 443, 326, 442, 487, 327, 325
120, 113, 102, 101,  36, 446, 496, 495, 235, 497, 498
121, 103,  35, 102, 113, 501, 500, 499, 490, 412, 446
122, 103,  24,  35, 113, 502, 410, 501, 490, 408, 412
123, 115,  57, 100,  56, 213, 396, 224, 457, 503, 458
124,  34, 112, 103, 111, 295, 488, 504, 296, 297, 270
125,  87,  89, 126,  86, 483, 128, 482, 505, 337, 335
126,  36, 113, 102,  35, 235, 446, 497, 506, 412, 500
127,  24,  25, 112,  34, 508, 293, 507, 509, 294, 295
128,  74, 101, 114, 113, 405, 403, 407, 258, 495, 237
129,  36, 113, 114, 101, 235, 237, 217, 498, 495, 403
130,  36, 101, 114,  37, 498, 403, 217, 510, 230, 227
131, 113,  55,  74, 101, 256, 257, 258, 495, 453, 405
132, 116,  20,  39, 117, 462, 178, 187, 181, 176, 180
133,  38,  21, 116, 115, 465, 463, 210, 209, 511, 211
134, 118,  98,  40,  19, 455, 460, 169, 513, 512, 514
135, 121,  63,  94,  62, 148, 372, 377, 146, 147, 378
136, 120,  61,  80,  62, 159, 386, 143, 139, 376, 144
137,  38,  21, 115,  37, 465, 511, 209, 222, 515, 223
138,  96,  60,  79,  61, 383, 382, 173, 158, 516, 381
139, 121, 120,  81,  62, 517, 141, 145, 146, 139, 140
140,  98, 117,  19, 118, 397, 175, 512, 455, 401, 513
141,  96,  41,  42,  17, 519, 518, 154, 469, 520, 521
142,  92,  91,  65,  84, 522, 358, 368, 369, 359, 357
143, 124, 125,  90,  66, 331, 475, 246, 524, 523, 525
144,  65,  83,  64,  92, 367, 366, 526, 368, 353, 473
145, 122,  94, 121,  63, 373, 377, 472, 135, 372, 148
146,  17,  96, 119, 120, 469, 157, 470, 527, 153, 156
147,  96,  41,  18,  97, 519, 528, 161, 168, 529, 167
148,  39, 117,  19,  98, 180, 175, 179, 436, 397, 512
149,  14,  44,  15, 122, 531, 251, 530, 533, 532, 534
150, 125,  85,  66, 124, 536, 535, 523, 331, 537, 524
151,  60,  97,  96, 118, 193, 168, 383, 191, 166, 165
152, 118,  40,  18,  19, 169, 171, 164, 513, 514, 538
153, 123,  92,  13,  14, 349, 540, 539, 542, 541, 543
154,  67,  85,  66, 125, 545, 535, 544, 476, 536, 523
155,  94,  93, 122,  44, 371, 134, 373, 547, 546, 532
156,  47, 125,  90, 124, 330, 475, 248, 247, 331, 246
157,  11,  48,  47, 125, 494, 549, 548, 492, 461, 330
158,   3,  10,  89, 126, 550, 479, 130, 132, 480, 128
159, 121,  95, 120,  62, 379, 151, 517, 146, 374, 139
160, 124,  47,  12,  46, 247, 329, 332, 346, 551, 345
161,  26, 110, 111, 105, 553, 279, 552, 292, 282, 415
162, 105,  26,  33, 111, 292, 290, 288, 415, 552, 414
163,  49,   5,   6,  29, 429, 555, 554, 428, 431, 556
164, 107, 106,  28,  31, 421, 442, 485, 558, 557, 559
165,  49,   6,  30,  29, 554, 560, 440, 428, 556, 437
166, 107, 108,  29,  28, 317, 478, 439, 485, 487, 486
167, 106,  28,  31,  27, 442, 559, 557, 441, 444, 561
168, 107,  30,  31,  28, 438, 562, 558, 485, 484, 559
169,  70, 105, 110, 109, 300, 282, 302, 303, 286, 284
170, 111,  26,  33,  25, 552, 290, 414, 298, 563, 564
171,  33, 104, 111,  34, 413, 268, 414, 566, 565, 296
172, 106,  31,  32,  27, 557, 568, 567, 441, 561, 569
173, 105, 110,  27,  26, 282, 283, 281, 292, 553, 570
174,  26, 105,  32,  27, 292, 287, 291, 570, 281, 569
175,  54, 112,  72, 103, 240, 418, 265, 264, 488, 263
176,  27, 105,  32, 106, 281, 287, 569, 441, 489, 567
177, 103, 111, 104,  34, 270, 268, 271, 504, 296, 565
178,  34,  24,  35, 103, 509, 410, 571, 504, 502, 501
179,  51, 109, 106, 105, 307, 326, 433, 434, 286, 489
180,  24, 112, 103,  34, 507, 488, 502, 509, 295, 504
181, 115, 101, 114,  56, 229, 403, 228, 457, 404, 402
182,  55, 113, 102, 101, 256, 446, 448, 453, 495, 496
183, 113, 112, 103,  24, 242, 488, 490, 408, 507, 502
184, 115,  56,  75,  57, 457, 452, 233, 213, 503, 234
185, 111,  34,  25,  33, 296, 294, 298, 414, 566, 564
186, 114,  37,  22,  36, 227, 226, 218, 217, 510, 216
187,  37,  22,  21, 115, 226, 572, 515, 223, 225, 511
188,  35,  23,  36, 113, 411, 215, 506, 412, 236, 235
189,  38,  20,  39, 116, 466, 178, 573, 210, 462, 187
190, 121, 120,  95,  16, 517, 151, 379, 575, 574, 390
191,  95,  16,  43, 121, 390, 388, 391, 379, 575, 254
192,  19,  98,  40,  39, 512, 460, 514, 179, 436, 576
193, 122,  44,  15, 121, 532, 251, 534, 472, 252, 250
194,  96,  17,  42, 120, 469, 521, 154, 153, 527, 152
195,  97,  41,  18,  40, 529, 528, 167, 170, 577, 171
196, 120,  17,  42,  16, 527, 521, 152, 574, 578, 389
197,  14,  93,  45,  44, 581, 580, 579, 531, 546, 582
198,  66, 125,  90,  67, 523, 475, 525, 544, 476, 474
199, 124,  46,  13,  92, 346, 344, 347, 584, 583, 540
200,  60,  78,  59, 118, 467, 199, 192, 191, 400, 190
201,  16, 120,  95,  42, 574, 151, 390, 389, 152, 150
202,  96,  18,  41,  17, 161, 528, 519, 469, 471, 520
203,  39, 116,  99,  38, 187, 182, 188, 573, 210, 208
204, 115,  38, 100,  99, 209, 221, 224, 207, 208, 394
205,  92,  93,  45,  14, 586, 580, 585, 541, 581, 579
206, 124,  92,  13, 123, 584, 540, 347, 587, 349, 539
207, 125,  47,  90,  48, 330, 248, 475, 461, 549, 588
208,  46,  91, 124,  47, 589, 245, 346, 551, 249, 247
209, 125,  11,  12,  47, 492, 590, 328, 330, 548, 329
210,  92,  45,  13,  14, 585, 591, 540, 541, 579, 543
211,  10,   9, 126,   3, 593, 592, 480, 550, 594, 132
212,  92,  45,  46,  13, 585, 595, 583, 540, 591, 344
213,   2, 126,  48,  11, 597, 127, 596, 598, 493, 494
214, 125,  89,  48,  90, 333, 129, 461, 475, 477, 588
215,  93, 122,  14,  92, 134, 533, 581, 586, 348, 541
216, 126,   3,   2,  48, 132, 599, 597, 127, 131, 596
217,  66, 124,  84,  91, 524, 600, 361, 360, 245, 359
218,  10,  87,   9,   1, 481, 601, 593, 603, 602, 604
219,   9,   3,   2, 126, 594, 599, 605, 592, 132, 597
220, 125,  86,  67,  85, 336, 339, 476, 536, 606, 545
221,   4,  10,  87,  68, 608, 481, 607, 610, 609, 611
222, 103, 113, 102,  54, 490, 446, 499, 264, 241, 445
223,  57,  99, 116, 115, 395, 182, 204, 213, 207, 211
224,  89,  68,  87,  10, 341, 611, 483, 479, 609, 481
225,  43,  94, 121,  44, 449, 377, 254, 253, 547, 252
226,  15,  43,  16, 121, 255, 388, 612, 250, 254, 575
227,   1,  10,  87,   4, 603, 481, 602, 613, 608, 607
228,  44,  94, 121, 122, 547, 377, 252, 532, 373, 472
229,  92,  64,  93, 122, 473, 138, 586, 348, 136, 134
230, 123,  92,  14, 122, 349, 541, 542, 350, 348, 533
231,  86,  68,  87,  89, 340, 611, 505, 337, 341, 483
232,  87,   9, 126,  10, 601, 592, 482, 481, 593, 480
233,  44, 122,  14,  93, 532, 533, 531, 546, 134, 581
234, 117,  59,  98,  58, 197, 456, 397, 185, 196, 398
235,  92, 123,  84,  83, 349, 614, 369, 353, 351, 370
236,  92,  91, 124,  46, 522, 245, 584, 583, 589, 346
237,  84,  85, 124,  66, 615, 537, 600, 361, 535, 524
238,  91, 124,  84,  92, 245, 600, 359, 522, 584, 369
239,  66, 124,  91,  90, 524, 245, 360, 525, 246, 244
240, 124, 123,  84,  92, 587, 614, 600, 584, 349, 369
**
*NSET, NSET=Nfix1
   5,   6,   7,   8,  49,  88, 319, 321, 423, 424, 426, 429, 430, 554, 555
*NSET, NSET=Load
   1,   2,  3,  4, 9, 10
*BOUNDARY
Nfix1,1
Nfix1,2
Nfix1,3
Nfix1,4
Nfix1,5
Nfix1,6
**
*MATERIAL,NAME=EL
*ELASTIC
1.2e+06,0.
**
*SOLID SECTION, ELSET=EALL, MATERIAL=EL

*NSET, NSET=DES
1

*DESIGNVARIABLES, TYPE=COORDINATE
DES

*SOLID SECTION, ELSET=EALL, MATERIAL=EL
*AMPLITUDE, NAME=RAMP
0.0, 0.0
1.0, 1.0
*STEP
*STATIC, DIRECT
0.1, 1.0
*CONTROLS, PARAMETERS=TIME INCREMENTATION
10, 10, 10, 50, 10, 4, 12, 20, , , ,
0.25, 0.5, 0.75, 0.85, , , ,
*CONTROLS, PARAMETERS=FIELD
0.005, 0.005, 1.0, 0.0, 0.02, 1e-5
*CLOAD, AMPLITUDE=RAMP
Load, 3, 0.2
*END STEP

*NODE FILE
 U
***EL FILE
** S, E
*END STEP


*STEP
*SENSITIVITY
*OBJECTIVE
STRAINENERGY
*END STEP

