**Block file for optimization
*INCLUDE, INPUT=/home/prateek/Documents/GitHub/Large-Scale-Topology-Optimization/TestCases/MBB/10MM/Mesh/mesh.nam
*INCLUDE, INPUT=/home/prateek/Documents/GitHub/Large-Scale-Topology-Optimization/TestCases/MBB/10MM/Mesh/roller.nam
*INCLUDE, INPUT=/home/prateek/Documents/GitHub/Large-Scale-Topology-Optimization/TestCases/MBB/10MM/Mesh/fix.nam
*INCLUDE, INPUT=/home/prateek/Documents/GitHub/Large-Scale-Topology-Optimization/TestCases/MBB/10MM/Mesh/pressureP1.nam
*INCLUDE, INPUT=/home/prateek/Documents/GitHub/Large-Scale-Topology-Optimization/TestCases/MBB/10MM/Mesh/pressureP2.nam
*INCLUDE, INPUT=/home/prateek/Documents/GitHub/Large-Scale-Topology-Optimization/TestCases/MBB/10MM/Mesh/pressureP3.nam
*INCLUDE, INPUT=/home/prateek/Documents/GitHub/Large-Scale-Topology-Optimization/TestCases/MBB/10MM/Mesh/pressureP4.nam
** Node set Nfix1 has DOF 1(X), DOF 2(Y), DOF 3(Z) fixed
*BOUNDARY 
fix,1
fix,2
fix,3
fix,4
fix,5
fix,6

*BOUNDARY 
roller,1
roller,2
**Add material named EL with elastic properties
*MATERIAL,NAME=EL
*ELASTIC
660000000,0.333

** Apply material EL to element set EALL
*SOLID SECTION, ELSET=EALL, MATERIAL=EL

** Design variable definition
*NSET, NSET=DES
1

*DESIGNVARIABLES, TYPE=COORDINATE
DES

*SOLID SECTION, ELSET=EALL, MATERIAL=EL
*STEP
*STATIC
**Begin setup for static analysis

** Define concentrated load on <nodeset>, <dof>, <magnitude>
*DLOAD
pressureP1, P1, 2500000
pressureP2, P2, 2500000
pressureP3, P3, 2500000
pressureP4, P4, 2500000
*END STEP
s

*NODE FILE
 U
***EL FILE
** S, E
*END STEP


*STEP
*SENSITIVITY
*OBJECTIVE
STRAINENERGY
*END STEP
